 Run started: Sun, 11 Nov 2018 14:25:24 +0000

 Atomic calculation performed for Sn:

 Converged in 79 iterations to an ae energy of -168090.064 eV

 Pseudo atomic calculation performed for Sn 4d10 5s2 5p2

 Converged in 32 iterations to a total energy of -2044.6352 eV

 Calculation not parallelised.

 ************************************ Title ************************************

 ***************************** General Parameters ******************************

 output verbosity                               : normal  (1)
 write checkpoint data to                       : ./Sn-20183-5175-14.check
 type of calculation                            : geometry optimization
 stress calculation                             : on
 density difference calculation                 : off
 electron localisation func (ELF) calculation   : off
 Hirshfeld analysis                             : off
 unlimited duration calculation
 timing information                             : on
 write extra output files                       : on
 write final potential to formatted file        : off
 write final density to formatted file          : off
 write structure in CELL formatted file         : on
 write BibTeX reference list                    : off
 write OTFG pseudopotential files               : off
 write electrostatic potential file             : off
 write bands file                               : off
 checkpoint writing                             : off

 output         length unit                     : A
 output           mass unit                     : amu
 output           time unit                     : ps
 output         charge unit                     : e
 output           spin unit                     : hbar/2
 output         energy unit                     : eV
 output          force unit                     : eV/A
 output       velocity unit                     : A/ps
 output       pressure unit                     : GPa
 output     inv_length unit                     : 1/A
 output      frequency unit                     : cm-1
 output force constant unit                     : eV/A**2
 output         volume unit                     : A**3
 output   IR intensity unit                     : (D/A)**2/amu
 output         dipole unit                     : D
 output         efield unit                     : eV/A/e
 output        entropy unit                     : J/mol/K

 wavefunctions paging                           : none
 random number generator seed                   : randomised (142524796)
 data distribution                              : optimal for this architecture
 optimization strategy                          : maximize speed(+++)

 *********************** Exchange-Correlation Parameters ***********************

 using functional                               : Perdew Burke Ernzerhof
 relativistic treatment                         : Koelling-Harmon
 DFT+D: Semi-empirical dispersion correction    : off

 ************************* Pseudopotential Parameters **************************

 pseudopotential representation                 : reciprocal space
 <beta|phi> representation                      : reciprocal space
 spin-orbit coupling                            : off

 **************************** Basis Set Parameters *****************************

 plane wave basis set cut-off                   :   350.0000   eV
 size of standard grid                          :     1.7500
 size of   fine   gmax                          :    16.7730   1/A
 finite basis set correction                    : none

 **************************** Electronic Parameters ****************************

 number of  electrons                           :  28.00
 net charge of system                           :  0.000
 treating system as non-spin-polarized
 number of bands                                :         18

 ********************* Electronic Minimization Parameters **********************

 Method: Treating system as metallic with density mixing treatment of electrons,
         and number of  SD  steps               :          1
         and number of  CG  steps               :          4

 total energy / atom convergence tol.           : 0.1000E-04   eV
 eigen-energy convergence tolerance             : 0.1000E-05   eV
 max force / atom convergence tol.              : ignored
 convergence tolerance window                   :          3   cycles
 max. number of SCF cycles                      :       1000
 number of fixed-spin iterations                :         10
 smearing scheme                                : Gaussian
 smearing width                                 : 0.2000       eV
 Fermi energy convergence tolerance             : 0.2721E-13   eV
 periodic dipole correction                     : NONE

 ************************** Density Mixing Parameters **************************

 density-mixing scheme                          : Pulay
 max. length of mixing history                  :         20
 charge density mixing amplitude                : 0.8000
 cut-off energy for mixing                      :  350.0       eV

 *********************** Population Analysis Parameters ************************

 Population analysis with cutoff                :  3.000       A
 Population analysis output                     : summary and pdos components

 ********************** Geometry Optimization Parameters ***********************

 optimization method                            : LBFGS
 max. no. of LBFGS updates                      : unbounded
 variable cell method                           : fixed basis size
 max. number of steps                           :          3
 estimated bulk modulus                         :  500.0       GPa
 estimated <frequency>                          :  1668.       cm-1
 geom line minimiser                            : on
 with line minimiser tolerance                  :     0.4000
 total energy convergence tolerance             : 0.2000E-04   eV/atom
        max ionic |force| tolerance             : 0.5000E-01   eV/A
 max ionic |displacement| tolerance             : 0.1000E-02   A
   max |stress component| tolerance             : 0.1000       GPa
 convergence tolerance window                   :          2   steps
 backup results every                           : 2147483647   steps
 write geom trajectory file                     : off

                                      Unit Cell
        Real Lattice(A)                      Reciprocal Lattice(1/A)
     3.5249800     0.0000000     0.0000000        1.782474030  -0.077758730  -0.011538616
     0.3215101     7.3700205     0.0000000        0.000000000   0.852532943  -0.307830329
     0.1875084     3.0463419     8.4368128        0.000000000   0.000000000   0.744734469

                       Lattice parameters(A)       Cell Angles
                    a =      3.524980          alpha =   70.115180
                    b =      7.377030          beta  =   88.802460
                    c =      8.971910          gamma =   87.502110

                       Current cell volume =           219.181437       A**3
                                   density =             1.083212   AMU/A**3
                                           =             1.798716     g/cm^3

                                     Cell Contents
                         Total number of ions in cell =    2
                      Total number of species in cell =    1
                        Max number of any one species =    2

            x  Element    Atom        Fractional coordinates of atoms  x
            x            Number           u          v          w      x
            x  Sn           1         0.140971   0.755306   0.530429   x
            x  Sn           2         0.636899   0.021535   0.159030   x

                         No user defined ionic velocities

                                   Details of Species

                               Mass of species in AMU
                                    Sn  118.7100000

                          Electric Quadrupole Moment (Barn)
                                    Sn    1.0000000 No Isotope Defined

                          Files used for pseudopotentials:
                                    Sn 3|2.2|7|7|9|50:51:42(qc=5)

                              k-Points For BZ Sampling
                       MP grid size for SCF calculation is  3  2  2
                            with an offset of   0.000  0.000  0.000
                       Number of kpoints used =             6

                               Symmetry and Constraints

                      Maximum deviation from symmetry = 0.442532E-15     ANG

                      Number of symmetry operations   =           2
                      Number of ionic constraints     =           3
                      Point group of crystal =     2: Ci, -1, -1
                      Space group of crystal =     2: P-1, -P 1

             Set iprint > 1 for details on symmetry rotations/translations

                         Centre of mass is constrained
             Set iprint > 1 for details of linear ionic constraints

                         Number of cell constraints= 0
                         Cell constraints are:  1 2 3 4 5 6

                         External pressure/stress (GPa)
                          0.00000   0.00000   0.00000
                                    0.00000   0.00000
                                              0.00000

Final energy, E             =  -4094.494323518     eV
Final free energy (E-TS)    =  -4094.529669464     eV
(energies not corrected for finite basis set)

NB est. 0K energy (E-0.5TS)      =  -4094.511996491     eV

WARNING - doing cell minimisation without finite basis correction:
        => now searching for a stationary and not minimum energy

 ******************************** Symmetrised Forces ********************************
 *                           Cartesian components (eV/A)                            *
 *                         x                    y                    z              *
 * Sn              1      0.00078              0.43213             -1.62505         *
 * Sn              2     -0.00078             -0.43213              1.62505         *

 *********** Symmetrised Stress Tensor ***********
 *          Cartesian components (GPa)           *
 *             x             y             z     *
 *  x      0.530875     -0.002550     -0.001273  *
 *  y     -0.002550      0.310429     -0.998750  *
 *  z     -0.001273     -0.998750      3.804101  *
 *  Pressure:   -1.5485                          *
 LBFGS: finished iteration     0 with enthalpy= -4.09452967E+003 eV

 +-----------+-----------------+-----------------+------------+-----+ <-- LBFGS
 | Parameter |      value      |    tolerance    |    units   | OK? | <-- LBFGS
 +-----------+-----------------+-----------------+------------+-----+ <-- LBFGS
 |  dE/ion   |   0.000000E+000 |   2.000000E-005 |         eV | No  | <-- LBFGS
 |  |F|max   |   1.681526E+000 |   5.000000E-002 |       eV/A | No  | <-- LBFGS
 |  |dR|max  |   3.527871E-016 |   1.000000E-003 |          A | No  | <-- LBFGS
[...]

 Calculation not parallelised.

 ************************************ Title ************************************

 ***************************** General Parameters ******************************

 output verbosity                               : normal  (1)
 write checkpoint data to                       : ./Sn-20183-5175-14.check
 type of calculation                            : geometry optimization
 stress calculation                             : on
 density difference calculation                 : off
 electron localisation func (ELF) calculation   : off
 Hirshfeld analysis                             : off
 unlimited duration calculation
 timing information                             : on
 write extra output files                       : on
 write final potential to formatted file        : off
 write final density to formatted file          : off
 write structure in CELL formatted file         : on
 write BibTeX reference list                    : off
 write OTFG pseudopotential files               : off
 write electrostatic potential file             : off
 write bands file                               : off
 checkpoint writing                             : off

 output         length unit                     : A
 output           mass unit                     : amu
 output           time unit                     : ps
 output         charge unit                     : e
 output           spin unit                     : hbar/2
 output         energy unit                     : eV
 output          force unit                     : eV/A
 output       velocity unit                     : A/ps
 output       pressure unit                     : GPa
 output     inv_length unit                     : 1/A
 output      frequency unit                     : cm-1
 output force constant unit                     : eV/A**2
 output         volume unit                     : A**3
 output   IR intensity unit                     : (D/A)**2/amu
 output         dipole unit                     : D
 output         efield unit                     : eV/A/e
 output        entropy unit                     : J/mol/K

 wavefunctions paging                           : none
 random number generator seed                   : randomised (145737945)
 data distribution                              : optimal for this architecture
 optimization strategy                          : maximize speed(+++)

 *********************** Exchange-Correlation Parameters ***********************

 using functional                               : Perdew Burke Ernzerhof
 relativistic treatment                         : Koelling-Harmon
 DFT+D: Semi-empirical dispersion correction    : off

 ************************* Pseudopotential Parameters **************************

 pseudopotential representation                 : reciprocal space
 <beta|phi> representation                      : reciprocal space
 spin-orbit coupling                            : off

 **************************** Basis Set Parameters *****************************

 plane wave basis set cut-off                   :   350.0000   eV
 size of standard grid                          :     1.7500
 size of   fine   gmax                          :    16.7730   1/A
 finite basis set correction                    : none

 **************************** Electronic Parameters ****************************

 number of  electrons                           :  28.00
 net charge of system                           :  0.000
 treating system as non-spin-polarized
 number of bands                                :         18

 ********************* Electronic Minimization Parameters **********************

 Method: Treating system as metallic with density mixing treatment of electrons,
         and number of  SD  steps               :          1
         and number of  CG  steps               :          4

 total energy / atom convergence tol.           : 0.1000E-04   eV
 eigen-energy convergence tolerance             : 0.1000E-05   eV
 max force / atom convergence tol.              : ignored
 convergence tolerance window                   :          3   cycles
 max. number of SCF cycles                      :       1000
 number of fixed-spin iterations                :         10
 smearing scheme                                : Gaussian
 smearing width                                 : 0.2000       eV
 Fermi energy convergence tolerance             : 0.2721E-13   eV
 periodic dipole correction                     : NONE

 ************************** Density Mixing Parameters **************************

 density-mixing scheme                          : Pulay
 max. length of mixing history                  :         20
 charge density mixing amplitude                : 0.8000
 cut-off energy for mixing                      :  350.0       eV

 *********************** Population Analysis Parameters ************************

 Population analysis with cutoff                :  3.000       A
 Population analysis output                     : summary and pdos components

 ********************** Geometry Optimization Parameters ***********************

 optimization method                            : LBFGS
 max. no. of LBFGS updates                      : unbounded
 variable cell method                           : fixed basis size
 max. number of steps                           :         20
 estimated bulk modulus                         :  500.0       GPa
 estimated <frequency>                          :  1668.       cm-1
 geom line minimiser                            : on
 with line minimiser tolerance                  :     0.4000
 total energy convergence tolerance             : 0.2000E-04   eV/atom
        max ionic |force| tolerance             : 0.5000E-01   eV/A
 max ionic |displacement| tolerance             : 0.1000E-02   A
   max |stress component| tolerance             : 0.1000       GPa
 convergence tolerance window                   :          2   steps
 backup results every                           : 2147483647   steps
 write geom trajectory file                     : off

[...]

                       Current cell volume =            54.792529       A**3
                                   density =             4.333073   AMU/A**3
                                           =             7.195236     g/cm^3

                                     Cell Contents
                         Total number of ions in cell =    2
                      Total number of species in cell =    1
                        Max number of any one species =    2

[...]

                         No user defined ionic velocities

                                   Details of Species

                               Mass of species in AMU
                                    Sn  118.7100000

                          Electric Quadrupole Moment (Barn)
                                    Sn    1.0000000 No Isotope Defined

                          Files used for pseudopotentials:
                                    Sn 3|2.2|7|7|9|50:51:42(qc=5)

                              k-Points For BZ Sampling
                       MP grid size for SCF calculation is  6  5  2
                            with an offset of   0.000  0.000  0.000
                       Number of kpoints used =            30

                               Symmetry and Constraints

                      Maximum deviation from symmetry = 0.188002E-14     ANG

                      Number of symmetry operations   =           2
                      Number of ionic constraints     =           3
                      Point group of crystal =     2: Ci, -1, -1
                      Space group of crystal =     2: P-1, -P 1

             Set iprint > 1 for details on symmetry rotations/translations

                         Centre of mass is constrained
             Set iprint > 1 for details of linear ionic constraints

                         Number of cell constraints= 0
                         Cell constraints are:  1 2 3 4 5 6

                         External pressure/stress (GPa)
                          0.00000   0.00000   0.00000
                                    0.00000   0.00000
                                              0.00000

[...]

WARNING - doing cell minimisation without finite basis correction:
        => now searching for a stationary and not minimum energy

[...]

 *********** Symmetrised Stress Tensor ***********
 *          Cartesian components (GPa)           *
 *             x             y             z     *
 *  x     -1.400051      0.158833      0.158859  *
 *  y      0.158833     -0.470773      0.091224  *
 *  z      0.158859      0.091224     -0.749642  *
 *  Pressure:    0.8735                          *
 LBFGS: finished iteration     0 with enthalpy= -4.09746797E+003 eV

[...]

 LBFGS: updated estimated <frequency>  =1465.48825 cm-1
 LBFGS: updated estimated bulk modulus =  44.10726 GPa
 LBFGS: finished iteration     5 with enthalpy= -4.09747829E+003 eV

[...]

 LBFGS: updated estimated <frequency>  = 870.68875 cm-1
 LBFGS: updated estimated bulk modulus =  66.62548 GPa
 LBFGS: finished iteration     8 with enthalpy= -4.09748722E+003 eV

 +-----------+-----------------+-----------------+------------+-----+ <-- LBFGS
 | Parameter |      value      |    tolerance    |    units   | OK? | <-- LBFGS
 +-----------+-----------------+-----------------+------------+-----+ <-- LBFGS
 |  dE/ion   |   2.141119E-003 |   2.000000E-005 |         eV | No  | <-- LBFGS
 |  |F|max   |   1.561226E-001 |   5.000000E-002 |       eV/A | No  | <-- LBFGS
 |  |dR|max  |   2.622938E-004 |   1.000000E-003 |          A | Yes | <-- LBFGS
 |   Smax    |   1.138611E+000 |   1.000000E-001 |        GPa | No  | <-- LBFGS
 +-----------+-----------------+-----------------+------------+-----+ <-- LBFGS

[...]

 LBFGS: improving iteration         9 with line minimization (lambda=  8.358495)

[...]

 +------------+-------------+-------------+-----------------+ <-- min LBFGS
 |    Step    |   lambda    |   F.delta'  |    enthalpy     | <-- min LBFGS
 +------------+-------------+-------------+-----------------+ <-- min LBFGS
 |  previous  |    0.000000 |    0.021628 |    -4097.487219 | <-- min LBFGS
 | trial step |    1.000000 |    0.019041 |    -4097.491764 | <-- min LBFGS
 |  line step |    8.358495 |   -0.025174 |    -4097.490767 | <-- min LBFGS
 +------------+-------------+-------------+-----------------+ <-- min LBFGS

 LBFGS: improving iteration         9 with quad minimization (lambda=  4.168894)

[...]

 +------------+-------------+-------------+-----------------+ <-- min LBFGS
 |    Step    |   lambda    |   F.delta'  |    enthalpy     | <-- min LBFGS
 +------------+-------------+-------------+-----------------+ <-- min LBFGS
 |  previous  |    0.000000 |    0.021628 |    -4097.487219 | <-- min LBFGS
 | trial step |    1.000000 |    0.019041 |    -4097.491764 | <-- min LBFGS
 |  line step |    8.358495 |   -0.025174 |    -4097.490767 | <-- min LBFGS
 |  quad step |    4.168894 |    0.004056 |    -4097.500348 | <-- min LBFGS
 +------------+-------------+-------------+-----------------+ <-- min LBFGS

[...]

------------------------------------------------------------------------ <-- SCF
SCF loop      Energy           Fermi           Energy gain       Timer   <-- SCF
                               energy          per atom          (sec)   <-- SCF
------------------------------------------------------------------------ <-- SCF
Initial  -4.10707436E+003  0.00000000E+000                       397.81  <-- SCF
      1  -4.10791094E+003  6.83668579E+000   4.18287734E-001     399.80  <-- SCF
      2  -4.10804020E+003  6.83101922E+000   6.46323174E-002     402.17  <-- SCF
      3  -4.09764715E+003  6.75079455E+000  -5.19652668E+000     404.47  <-- SCF
      4  -4.09776686E+003  6.74624221E+000   5.98535830E-002     406.44  <-- SCF
      5  -4.09750012E+003  6.77381421E+000  -1.33367503E-001     408.68  <-- SCF
      6  -4.09750529E+003  6.77074218E+000   2.58427100E-003     411.28  <-- SCF
      7  -4.09750539E+003  6.77005430E+000   4.84275422E-005     413.37  <-- SCF
      8  -4.09750537E+003  6.76958013E+000  -8.14412185E-006     414.94  <-- SCF
      9  -4.09750537E+003  6.76948749E+000   1.60657428E-006     416.38  <-- SCF
------------------------------------------------------------------------ <-- SCF

Final energy, E             =  -4097.487461428     eV
Final free energy (E-TS)    =  -4097.505373662     eV
(energies not corrected for finite basis set)

NB est. 0K energy (E-0.5TS)      =  -4097.496417545     eV

 ******************************** Symmetrised Forces ********************************
 *                           Cartesian components (eV/A)                            *
 *                         x                    y                    z              *
 * Sn              1     -0.05008             -0.02859              0.08086         *
 * Sn              2      0.05008              0.02859             -0.08086         *

 *********** Symmetrised Stress Tensor ***********
 *          Cartesian components (GPa)           *
 *             x             y             z     *
 *  x      0.850495     -0.375466     -0.666429  *
 *  y     -0.375466      1.156706      0.790562  *
 *  z     -0.666429      0.790562      0.802114  *
 *  Pressure:   -0.9364                          *

 +------------+-------------+-------------+-----------------+ <-- min LBFGS
 |    Step    |   lambda    |   F.delta'  |    enthalpy     | <-- min LBFGS
 +------------+-------------+-------------+-----------------+ <-- min LBFGS
 |  previous  |    0.000000 |    0.015571 |    -4097.500348 | <-- min LBFGS
 | trial step |    1.000000 |   -0.005668 |    -4097.505374 | <-- min LBFGS
 +------------+-------------+-------------+-----------------+ <-- min LBFGS

 LBFGS: finished iteration    10 with enthalpy= -4.09750537E+003 eV

 +-----------+-----------------+-----------------+------------+-----+ <-- LBFGS
 | Parameter |      value      |    tolerance    |    units   | OK? | <-- LBFGS
 +-----------+-----------------+-----------------+------------+-----+ <-- LBFGS
 |  dE/ion   |   2.512703E-003 |   2.000000E-005 |         eV | No  | <-- LBFGS
 |  |F|max   |   9.932099E-002 |   5.000000E-002 |       eV/A | No  | <-- LBFGS
 |  |dR|max  |   2.058533E-003 |   1.000000E-003 |          A | No  | <-- LBFGS
 |   Smax    |   1.156706E+000 |   1.000000E-001 |        GPa | No  | <-- LBFGS
 +-----------+-----------------+-----------------+------------+-----+ <-- LBFGS

 Starting LBFGS iteration         11 ...

 +------------+-------------+-------------+-----------------+ <-- min LBFGS
 |    Step    |   lambda    |   F.delta'  |    enthalpy     | <-- min LBFGS
 +------------+-------------+-------------+-----------------+ <-- min LBFGS
 |  previous  |    0.000000 |    0.025331 |    -4097.505374 | <-- min LBFGS
 +------------+-------------+-------------+-----------------+ <-- min LBFGS

 LBFGS: starting iteration        11 with trial guess (lambda=  1.000000)

                                      Unit Cell
        Real Lattice(A)              Reciprocal Lattice(1/A)
     3.2742261     1.1216083     0.2058061        2.485347259  -1.726457777   0.398461811
     2.2880997     3.7144173     1.8221631       -0.889915835   2.811849726  -1.166186417
     1.2573640     3.5818733     7.6769383        0.144598291  -0.621124337   1.084567950

                       Lattice parameters(A)       Cell Angles
                    a =      3.467119          alpha =   41.830710
                    b =      4.727851          beta  =   70.903766
                    c =      8.564237          gamma =   42.771331

                Current cell volume =            55.589181 A**3

                                     Cell Contents

            x  Element         Atom        Fractional coordinates of atoms  x
            x                 Number           u          v          w      x
            x  Sn                1         0.105214   0.696688   0.587161   x
            x  Sn                2         0.672657   0.080153   0.102298   x

------------------------------------------------------------------------ <-- SCF
SCF loop      Energy           Fermi           Energy gain       Timer   <-- SCF
                               energy          per atom          (sec)   <-- SCF
------------------------------------------------------------------------ <-- SCF
Initial  -4.09798491E+003  0.00000000E+000                       421.64  <-- SCF
      1  -4.10017326E+003  7.07014621E+000   1.09417445E+000     423.67  <-- SCF
      2  -4.10019699E+003  7.06586693E+000   1.18658790E-002     426.00  <-- SCF
      3  -4.09754927E+003  6.87972884E+000  -1.32386382E+000     428.25  <-- SCF