 Run started: Sun, 11 Nov 2018 01:14:22 +0000

 Atomic calculation performed for Sn:

 Converged in 79 iterations to an ae energy of -168090.064 eV

 Pseudo atomic calculation performed for Sn 4d10 5s2 5p2

 Converged in 21 iterations to a total energy of -1997.4450 eV

 Calculation not parallelised.

 ************************************ Title ************************************

 ***************************** General Parameters ******************************

 output verbosity                               : normal  (1)
 write checkpoint data to                       : ./Sn-12404-1931-6.check
 type of calculation                            : geometry optimization
 stress calculation                             : on
 density difference calculation                 : off
 electron localisation func (ELF) calculation   : off
 Hirshfeld analysis                             : off
 unlimited duration calculation
 timing information                             : on
 write extra output files                       : on
 write final potential to formatted file        : off
 write final density to formatted file          : off
 write structure in CELL formatted file         : on
 write BibTeX reference list                    : off
 write OTFG pseudopotential files               : off
 write electrostatic potential file             : off
 write bands file                               : off
 checkpoint writing                             : off

 output         length unit                     : A
 output           mass unit                     : amu
 output           time unit                     : ps
 output         charge unit                     : e
 output           spin unit                     : hbar/2
 output         energy unit                     : eV
 output          force unit                     : eV/A
 output       velocity unit                     : A/ps
 output       pressure unit                     : GPa
 output     inv_length unit                     : 1/A
 output      frequency unit                     : cm-1
 output force constant unit                     : eV/A**2
 output         volume unit                     : A**3
 output   IR intensity unit                     : (D/A)**2/amu
 output         dipole unit                     : D
 output         efield unit                     : eV/A/e
 output        entropy unit                     : J/mol/K

 wavefunctions paging                           : none
 random number generator seed                   : randomised (11422606)
 data distribution                              : optimal for this architecture
 optimization strategy                          : maximize speed(+++)

 *********************** Exchange-Correlation Parameters ***********************

 using functional                               : Perdew Burke Ernzerhof
 relativistic treatment                         : Koelling-Harmon
 DFT+D: Semi-empirical dispersion correction    : off

 ************************* Pseudopotential Parameters **************************

 pseudopotential representation                 : reciprocal space
 <beta|phi> representation                      : reciprocal space
 spin-orbit coupling                            : off

 **************************** Basis Set Parameters *****************************

 plane wave basis set cut-off                   :   150.0000   eV
 size of standard grid                          :     1.7500
 size of   fine   gmax                          :    10.9805   1/A
 finite basis set correction                    : none

 **************************** Electronic Parameters ****************************

 number of  electrons                           :  28.00
 net charge of system                           :  0.000
 treating system as non-spin-polarized
 number of bands                                :         18

 ********************* Electronic Minimization Parameters **********************

 Method: Treating system as metallic with density mixing treatment of electrons,
         and number of  SD  steps               :          1
         and number of  CG  steps               :          4

 total energy / atom convergence tol.           : 0.1000E-04   eV
 eigen-energy convergence tolerance             : 0.1000E-05   eV
 max force / atom convergence tol.              : ignored
 convergence tolerance window                   :          3   cycles
 max. number of SCF cycles                      :       1000
 number of fixed-spin iterations                :         10
 smearing scheme                                : Gaussian
 smearing width                                 : 0.2000       eV
 Fermi energy convergence tolerance             : 0.2721E-13   eV
 periodic dipole correction                     : NONE

 ************************** Density Mixing Parameters **************************

 density-mixing scheme                          : Pulay
 max. length of mixing history                  :         20
 charge density mixing amplitude                : 0.8000
 cut-off energy for mixing                      :  150.0       eV

 *********************** Population Analysis Parameters ************************

 Population analysis with cutoff                :  3.000       A
 Population analysis output                     : summary and pdos components

 ********************** Geometry Optimization Parameters ***********************

 optimization method                            : LBFGS
 max. no. of LBFGS updates                      : unbounded
 variable cell method                           : fixed basis size
 max. number of steps                           :          3
 estimated bulk modulus                         :  500.0       GPa
 estimated <frequency>                          :  1668.       cm-1
 geom line minimiser                            : on
 with line minimiser tolerance                  :     0.4000
 total energy convergence tolerance             : 0.2000E-04   eV/atom
        max ionic |force| tolerance             : 0.5000E-01   eV/A
 max ionic |displacement| tolerance             : 0.1000E-02   A
   max |stress component| tolerance             : 0.1000       GPa
 convergence tolerance window                   :          2   steps
 backup results every                           : 2147483647   steps
 write geom trajectory file                     : off

                                      Unit Cell
        Real Lattice(A)                      Reciprocal Lattice(1/A)
     3.3960100     0.0000000     0.0000000        1.850166904   0.676993906   0.687356665
    -1.3012501     3.5562062     0.0000000        0.000000000   1.766822562   0.259976990
    -1.4301076    -0.6624231     4.5018757        0.000000000   0.000000000   1.395681665

                       Lattice parameters(A)       Cell Angles
                    a =      3.396010          alpha =   91.569720
                    b =      3.786800          beta  =  107.447160
                    c =      4.769790          gamma =  110.098060

                       Current cell volume =            54.368755       A**3
                                   density =             4.366846   AMU/A**3
                                           =             7.251319     g/cm^3

                                     Cell Contents
                         Total number of ions in cell =    2
                      Total number of species in cell =    1
                        Max number of any one species =    2

            x  Element    Atom        Fractional coordinates of atoms  x
            x            Number           u          v          w      x
            x  Sn           1         0.247218  -0.000454   0.932510   x
            x  Sn           2         0.747996   0.647388   0.207599   x

                         No user defined ionic velocities

                                   Details of Species

                               Mass of species in AMU
                                    Sn  118.7100000

                          Electric Quadrupole Moment (Barn)
                                    Sn    1.0000000 No Isotope Defined

                          Files used for pseudopotentials:
                                    Sn 3|2.2|7|7|9|50:51:42(qc=5)

                              k-Points For BZ Sampling
                       MP grid size for SCF calculation is  4  3  3
                            with an offset of   0.000  0.000  0.000
                       Number of kpoints used =            18

                               Symmetry and Constraints

                      Maximum deviation from symmetry = 0.470004E-15     ANG

                      Number of symmetry operations   =           2
                      Number of ionic constraints     =           3
                      Point group of crystal =     2: Ci, -1, -1
                      Space group of crystal =     2: P-1, -P 1

             Set iprint > 1 for details on symmetry rotations/translations

                         Centre of mass is constrained
             Set iprint > 1 for details of linear ionic constraints

                         Number of cell constraints= 0
                         Cell constraints are:  1 2 3 4 5 6

                         External pressure/stress (GPa)
                          0.00000   0.00000   0.00000
                                    0.00000   0.00000
                                              0.00000

Final energy, E             =  -4020.779985414     eV
Final free energy (E-TS)    =  -4020.800031000     eV
(energies not corrected for finite basis set)

NB est. 0K energy (E-0.5TS)      =  -4020.790008207     eV

WARNING - doing cell minimisation without finite basis correction:
        => now searching for a stationary and not minimum energy

 ******************************** Symmetrised Forces ********************************
 *                           Cartesian components (eV/A)                            *
 *                         x                    y                    z              *
 * Sn              1     -1.35324              1.20779             -6.29890         *
 * Sn              2      1.35324             -1.20779              6.29890         *

 *********** Symmetrised Stress Tensor ***********
 *          Cartesian components (GPa)           *
 *             x             y             z     *
 *  x    861.470235     -2.933051      0.496490  *
 *  y     -2.933051    846.468250      5.911956  *
 *  z      0.496490      5.911956    879.838862  *
 *  Pressure: -862.5924                          *
 LBFGS: finished iteration     0 with enthalpy= -4.02080003E+003 eV

 +-----------+-----------------+-----------------+------------+-----+ <-- LBFGS
 | Parameter |      value      |    tolerance    |    units   | OK? | <-- LBFGS
 +-----------+-----------------+-----------------+------------+-----+ <-- LBFGS
 |  dE/ion   |   0.000000E+000 |   2.000000E-005 |         eV | No  | <-- LBFGS
 |  |F|max   |   6.554856E+000 |   5.000000E-002 |       eV/A | No  | <-- LBFGS
 |  |dR|max  |   0.000000E+000 |   1.000000E-003 |          A | No  | <-- LBFGS
[...]
Initial  -4.04463419E+003  0.00000000E+000                        22.71  <-- SCF
      1  -4.07077508E+003  2.45447291E+001   1.30704441E+001      22.95  <-- SCF
      2  -4.07099843E+003  2.45399642E+001   1.11677829E-001      23.21  <-- SCF
      3  -4.05459128E+003  2.44873506E+001  -8.20357711E+000      23.43  <-- SCF
      4  -4.05474418E+003  2.44822224E+001   7.64509317E-002      23.69  <-- SCF
      5  -4.05457767E+003  2.45351732E+001  -8.32545986E-002      23.91  <-- SCF
      6  -4.05457736E+003  2.45333000E+001  -1.56699089E-004      24.23  <-- SCF
      7  -4.05457730E+003  2.45341441E+001  -3.01784742E-005      24.45  <-- SCF
      8  -4.05457730E+003  2.45338792E+001   1.09736735E-006      24.61  <-- SCF
      9  -4.05457730E+003  2.45340088E+001   4.19642482E-007      24.76  <-- SCF
------------------------------------------------------------------------ <-- SCF

Final energy, E             =  -4054.558919768     eV
Final free energy (E-TS)    =  -4054.577300337     eV
(energies not corrected for finite basis set)

NB est. 0K energy (E-0.5TS)      =  -4054.568110053     eV

[...]

 +------------+-------------+-------------+-----------------+ <-- min LBFGS
 |    Step    |   lambda    |   F.delta'  |    enthalpy     | <-- min LBFGS
 +------------+-------------+-------------+-----------------+ <-- min LBFGS
 |  previous  |    0.000000 |    2.119830 |    -4053.096955 | <-- min LBFGS
 | trial step |    1.000000 |    0.603038 |    -4054.577300 | <-- min LBFGS
 +------------+-------------+-------------+-----------------+ <-- min LBFGS

 geom_check_lambda: WARNING - unit cell strain > 10% and working with fixed basis size
 geom_check_lambda:         - suggest you reconsider your initial cell vectors
 geom_check_lambda:           and/or change to fixed basis quality calculation,
 geom_check_lambda:           i.e. fixed_npw=.false.
 LBFGS: finished iteration     3 with enthalpy= -4.05457730E+003 eV

 +-----------+-----------------+-----------------+------------+-----+ <-- LBFGS
 | Parameter |      value      |    tolerance    |    units   | OK? | <-- LBFGS
 +-----------+-----------------+-----------------+------------+-----+ <-- LBFGS
 |  dE/ion   |   7.401727E-001 |   2.000000E-005 |         eV | No  | <-- LBFGS
 |  |F|max   |   2.263862E+001 |   5.000000E-002 |       eV/A | No  | <-- LBFGS
 |  |dR|max  |   2.122556E-002 |   1.000000E-003 |          A | No  | <-- LBFGS
 |   Smax    |   5.584970E+001 |   1.000000E-001 |        GPa | No  | <-- LBFGS
 +-----------+-----------------+-----------------+------------+-----+ <-- LBFGS

 LBFGS: WARNING - Geometry optimization failed to converge after          3 steps

 LBFGS: Final Configuration:

[...]

                Current cell volume =            22.122276 A**3

                                     Cell Contents

[...]

 LBFGS: Final Enthalpy     = -4.05457730E+003 eV
 LBFGS: Final <frequency>  =    1762.04781 cm-1
 LBFGS: Final bulk modulus unchanged from initial value

  *** There were at least     6 warnings during this run ***
  *** => please check the whole of this file carefully!  ***

 ******************************** Symmetrised Forces ********************************
 *                           Cartesian components (eV/A)                            *
 *                         x                    y                    z              *
 * Sn              1     -2.08944             10.74174            -19.81808         *
 * Sn              2      2.08944            -10.74174             19.81808         *

 *********** Symmetrised Stress Tensor ***********
 *          Cartesian components (GPa)           *
 *             x             y             z     *
 *  x    -55.849697      3.663861     -6.648331  *
 *  y      3.663861    -21.051903     -4.421549  *
 *  z     -6.648331     -4.421549    -25.466431  *
 *  Pressure:   34.1227                          *

[...]

Charge spilling parameter for spin component 1 = 2.47%

            Orbital Populations
     Ion    Atom   Orbital             Charge
     Sn     1      Dzz                  1.989
     Sn     1      Dzy                  1.988
     Sn     1      Dzx                  1.990
     Sn     1      Dxx-yy               1.989
     Sn     1      Dxy                  1.987
     Sn     1      S                    2.355
     Sn     1      Px                   0.923
     Sn     1      Py                   0.951
     Sn     1      Pz                   1.067
     Sn     1      S                   -1.240
     Sn     2      Dzz                  1.989
     Sn     2      Dzy                  1.989
     Sn     2      Dzx                  1.990
     Sn     2      Dxx-yy               1.989
     Sn     2      Dxy                  1.987
     Sn     2      S                    2.356
     Sn     2      Px                   0.923
     Sn     2      Py                   0.951
     Sn     2      Pz                   1.067
     Sn     2      S                   -1.240
                           Total:      28.000

     Atomic Populations (Mulliken)
Species          Ion     s      p      d      f     Total  Charge (e)
  Sn              1     1.12   2.94   9.94   0.00  14.00     0.00
  Sn              2     1.12   2.94   9.94   0.00  14.00     0.00

                 Bond                   Population      Length (A)
              Sn 1 -- Sn 2                 -17.82        2.00558

Initialisation time =     12.85 s
Calculation time    =     12.40 s
Finalisation time   =      0.01 s
Total time          =     25.26 s
 |      CCC   AA    SSS  TTTTT  EEEEE  PPPP        |
 |     C     A  A  S       T    E      P   P       |
 |     C     AAAA   SS     T    EEE    PPPP        |
 |     C     A  A     S    T    E      P           |
 |      CCC  A  A  SSS     T    EEEEE  P           |
 | Welcome to Academic Release CASTEP version 18.1 |
 | Ab Initio Total Energy Program                  |
 | Authors:                                        |
 | M. Segall, M. Probert, C. Pickard, P. Hasnip,   |
 | S. Clark, K. Refson, J. R. Yates, M. Payne      |
 | Contributors:                                   |
 | P. Lindan, P. Haynes, J. White, V. Milman,      |
 | N. Govind, M. Gibson, P. Tulip, V. Cocula,      |
 | B. Montanari, D. Quigley, M. Glover,            |
 | L. Bernasconi, A. Perlov, M. Plummer,           |
 | E. McNellis, J. Meyer, J. Gale, D. Jochym       |
 | J. Aarons, B. Walker, R. Gillen, D. Jones       |
 | T. Green, I. J. Bush, C. J. Armstrong,          |
 | E. J. Higgins, E. L. Brown, M. S. McFly,        |
 | J. Wilkins, B-C. Shih, P. J. P. Byrne           |
 | Copyright (c) 2000 - 2017                       |
 |     Distributed under the terms of an           |
 |     Agreement between the United Kingdom        |
 |     Car-Parrinello (UKCP) Consortium,           |
 |     Daresbury Laboratory and Accelrys, Inc.     |
 | Please cite                                     |
 |     "First principles methods using CASTEP"     |
 |         Zeitschrift fuer Kristallographie       |
 |           220(5-6) pp. 567-570 (2005)           |
 | S. J. Clark, M. D. Segall, C. J. Pickard,       |
 | P. J. Hasnip, M. J. Probert, K. Refson,         |
 | M. C. Payne                                     |
 |       in all publications arising from          |
 |              your use of CASTEP                 |

 Run started: Sun, 11 Nov 2018 01:15:28 +0000

 Atomic calculation performed for Sn:

 Converged in 79 iterations to an ae energy of -168090.064 eV

 Pseudo atomic calculation performed for Sn 4d10 5s2 5p2

 Converged in 21 iterations to a total energy of -1997.4450 eV

 Calculation not parallelised.

 ************************************ Title ************************************

 ***************************** General Parameters ******************************

 output verbosity                               : normal  (1)
 write checkpoint data to                       : ./Sn-12404-1931-6.check
 type of calculation                            : geometry optimization
 stress calculation                             : on
 density difference calculation                 : off
 electron localisation func (ELF) calculation   : off
 Hirshfeld analysis                             : off
 unlimited duration calculation
 timing information                             : on
 write extra output files                       : on
 write final potential to formatted file        : off
 write final density to formatted file          : off
 write structure in CELL formatted file         : on
 write BibTeX reference list                    : off
 write OTFG pseudopotential files               : off
 write electrostatic potential file             : off
 write bands file                               : off
 checkpoint writing                             : off

 output         length unit                     : A
 output           mass unit                     : amu
 output           time unit                     : ps
 output         charge unit                     : e
 output           spin unit                     : hbar/2
 output         energy unit                     : eV
 output          force unit                     : eV/A
 output       velocity unit                     : A/ps
 output       pressure unit                     : GPa
 output     inv_length unit                     : 1/A
 output      frequency unit                     : cm-1
 output force constant unit                     : eV/A**2
 output         volume unit                     : A**3
 output   IR intensity unit                     : (D/A)**2/amu
 output         dipole unit                     : D
 output         efield unit                     : eV/A/e
 output        entropy unit                     : J/mol/K

 wavefunctions paging                           : none
 random number generator seed                   : randomised (11528466)
 data distribution                              : optimal for this architecture
 optimization strategy                          : maximize speed(+++)

 *********************** Exchange-Correlation Parameters ***********************

 using functional                               : Perdew Burke Ernzerhof
 relativistic treatment                         : Koelling-Harmon
 DFT+D: Semi-empirical dispersion correction    : off

 ************************* Pseudopotential Parameters **************************

 pseudopotential representation                 : reciprocal space
 <beta|phi> representation                      : reciprocal space
 spin-orbit coupling                            : off

 **************************** Basis Set Parameters *****************************

 plane wave basis set cut-off                   :   150.0000   eV
 size of standard grid                          :     1.7500
 size of   fine   gmax                          :    10.9805   1/A
 finite basis set correction                    : none

 **************************** Electronic Parameters ****************************

 number of  electrons                           :  28.00
 net charge of system                           :  0.000
 treating system as non-spin-polarized
 number of bands                                :         18

 ********************* Electronic Minimization Parameters **********************

 Method: Treating system as metallic with density mixing treatment of electrons,
         and number of  SD  steps               :          1
         and number of  CG  steps               :          4

 total energy / atom convergence tol.           : 0.1000E-04   eV
 eigen-energy convergence tolerance             : 0.1000E-05   eV
 max force / atom convergence tol.              : ignored
 convergence tolerance window                   :          3   cycles
 max. number of SCF cycles                      :       1000
 number of fixed-spin iterations                :         10
 smearing scheme                                : Gaussian
 smearing width                                 : 0.2000       eV
 Fermi energy convergence tolerance             : 0.2721E-13   eV
 periodic dipole correction                     : NONE

 ************************** Density Mixing Parameters **************************

 density-mixing scheme                          : Pulay
 max. length of mixing history                  :         20
 charge density mixing amplitude                : 0.8000
 cut-off energy for mixing                      :  150.0       eV

 *********************** Population Analysis Parameters ************************

 Population analysis with cutoff                :  3.000       A
 Population analysis output                     : summary and pdos components

 ********************** Geometry Optimization Parameters ***********************

 optimization method                            : LBFGS
 max. no. of LBFGS updates                      : unbounded
 variable cell method                           : fixed basis size
 max. number of steps                           :          3
 estimated bulk modulus                         :  500.0       GPa
 estimated <frequency>                          :  1668.       cm-1
 geom line minimiser                            : on
 with line minimiser tolerance                  :     0.4000
 total energy convergence tolerance             : 0.2000E-04   eV/atom
        max ionic |force| tolerance             : 0.5000E-01   eV/A
 max ionic |displacement| tolerance             : 0.1000E-02   A
   max |stress component| tolerance             : 0.1000       GPa
 convergence tolerance window                   :          2   steps
 backup results every                           : 2147483647   steps
 write geom trajectory file                     : off

                                      Unit Cell
        Real Lattice(A)                      Reciprocal Lattice(1/A)
     2.4538023     0.0860116     0.0457081        2.516178334   0.742175772   0.987690593
    -0.8473595     2.9520395    -0.0595577       -0.081985551   2.113449371   0.424326652
    -0.9932499    -0.6436663     3.0140081       -0.039778473   0.030507156   2.078067327

                       Lattice parameters(A)       Cell Angles
                    a =      2.455735          alpha =   97.149687
                    b =      3.071824          beta  =  107.225751
                    c =      3.238070          gamma =  104.024322

                       Current cell volume =            22.122276       A**3
                                   density =            10.732169   AMU/A**3
                                           =            17.821185     g/cm^3

                                     Cell Contents
                         Total number of ions in cell =    2
                      Total number of species in cell =    1
                        Max number of any one species =    2

            x  Element    Atom        Fractional coordinates of atoms  x
            x            Number           u          v          w      x
            x  Sn           1         0.239218   0.004191   0.913520   x
            x  Sn           2         0.755995   0.642743   0.226589   x

                         No user defined ionic velocities

                                   Details of Species

                               Mass of species in AMU
                                    Sn  118.7100000

                          Electric Quadrupole Moment (Barn)
                                    Sn    1.0000000 No Isotope Defined

                          Files used for pseudopotentials:
                                    Sn 3|2.2|7|7|9|50:51:42(qc=5)

                              k-Points For BZ Sampling
                       MP grid size for SCF calculation is  5  4  4
                            with an offset of   0.000  0.000  0.000
                       Number of kpoints used =            40

                               Symmetry and Constraints

                      Maximum deviation from symmetry = 0.470004E-15     ANG

                      Number of symmetry operations   =           2
                      Number of ionic constraints     =           3
                      Point group of crystal =     2: Ci, -1, -1
                      Space group of crystal =     2: P-1, -P 1

             Set iprint > 1 for details on symmetry rotations/translations

                         Centre of mass is constrained
             Set iprint > 1 for details of linear ionic constraints

                         Number of cell constraints= 0
                         Cell constraints are:  1 2 3 4 5 6

                         External pressure/stress (GPa)
                          0.00000   0.00000   0.00000
                                    0.00000   0.00000
                                              0.00000