 Run started: Sun, 11 Nov 2018 01:15:56 +0000

 Atomic calculation performed for Sn:

 Converged in 79 iterations to an ae energy of -168090.064 eV

 Pseudo atomic calculation performed for Sn 4d10 5s2 5p2

 Converged in 27 iterations to a total energy of -2044.0517 eV

 Calculation not parallelised.

 ************************************ Title ************************************

 ***************************** General Parameters ******************************

 output verbosity                               : normal  (1)
 write checkpoint data to                       : ./Sn-18595-4976-1.check
 type of calculation                            : geometry optimization
 stress calculation                             : on
 density difference calculation                 : off
 electron localisation func (ELF) calculation   : off
 Hirshfeld analysis                             : off
 unlimited duration calculation
 timing information                             : on
 write extra output files                       : on
 write final potential to formatted file        : off
 write final density to formatted file          : off
 write structure in CELL formatted file         : on
 write BibTeX reference list                    : off
 write OTFG pseudopotential files               : off
 write electrostatic potential file             : off
 write bands file                               : off
 checkpoint writing                             : off

 output         length unit                     : A
 output           mass unit                     : amu
 output           time unit                     : ps
 output         charge unit                     : e
 output           spin unit                     : hbar/2
 output         energy unit                     : eV
 output          force unit                     : eV/A
 output       velocity unit                     : A/ps
 output       pressure unit                     : GPa
 output     inv_length unit                     : 1/A
 output      frequency unit                     : cm-1
 output force constant unit                     : eV/A**2
 output         volume unit                     : A**3
 output   IR intensity unit                     : (D/A)**2/amu
 output         dipole unit                     : D
 output         efield unit                     : eV/A/e
 output        entropy unit                     : J/mol/K

 wavefunctions paging                           : none
 random number generator seed                   : randomised (11556326)
 data distribution                              : optimal for this architecture
 optimization strategy                          : maximize speed(+++)

 *********************** Exchange-Correlation Parameters ***********************

 using functional                               : Perdew Burke Ernzerhof
 relativistic treatment                         : Koelling-Harmon
 DFT+D: Semi-empirical dispersion correction    : off

 ************************* Pseudopotential Parameters **************************

 pseudopotential representation                 : reciprocal space
 <beta|phi> representation                      : reciprocal space
 spin-orbit coupling                            : off

 **************************** Basis Set Parameters *****************************

 plane wave basis set cut-off                   :   250.0000   eV
 size of standard grid                          :     1.7500
 size of   fine   gmax                          :    14.1758   1/A
 finite basis set correction                    : none

 **************************** Electronic Parameters ****************************

 number of  electrons                           :  28.00
 net charge of system                           :  0.000
 treating system as non-spin-polarized
 number of bands                                :         18

 ********************* Electronic Minimization Parameters **********************

 Method: Treating system as metallic with density mixing treatment of electrons,
         and number of  SD  steps               :          1
         and number of  CG  steps               :          4

 total energy / atom convergence tol.           : 0.1000E-04   eV
 eigen-energy convergence tolerance             : 0.1000E-05   eV
 max force / atom convergence tol.              : ignored
 convergence tolerance window                   :          3   cycles
 max. number of SCF cycles                      :       1000
 number of fixed-spin iterations                :         10
 smearing scheme                                : Gaussian
 smearing width                                 : 0.2000       eV
 Fermi energy convergence tolerance             : 0.2721E-13   eV
 periodic dipole correction                     : NONE

 ************************** Density Mixing Parameters **************************

 density-mixing scheme                          : Pulay
 max. length of mixing history                  :         20
 charge density mixing amplitude                : 0.8000
 cut-off energy for mixing                      :  250.0       eV

 *********************** Population Analysis Parameters ************************

 Population analysis with cutoff                :  3.000       A
 Population analysis output                     : summary and pdos components

 ********************** Geometry Optimization Parameters ***********************

 optimization method                            : LBFGS
 max. no. of LBFGS updates                      : unbounded
 variable cell method                           : fixed basis size
 max. number of steps                           :          3
 estimated bulk modulus                         :  500.0       GPa
 estimated <frequency>                          :  1668.       cm-1
 geom line minimiser                            : on
 with line minimiser tolerance                  :     0.4000
 total energy convergence tolerance             : 0.2000E-04   eV/atom
        max ionic |force| tolerance             : 0.5000E-01   eV/A
 max ionic |displacement| tolerance             : 0.1000E-02   A
   max |stress component| tolerance             : 0.1000       GPa
 convergence tolerance window                   :          2   steps
 backup results every                           : 2147483647   steps
 write geom trajectory file                     : off

                                      Unit Cell
        Real Lattice(A)                      Reciprocal Lattice(1/A)
     2.5875100     0.0000000     0.0000000        2.428274792  -0.301684235  -0.323834593
     0.3510554     2.8256663     0.0000000        0.000000000   2.223611951  -0.165610002
     1.0591467     0.5531269     7.4267222        0.000000000   0.000000000   0.846024008

                       Lattice parameters(A)       Cell Angles
                    a =      2.587510          alpha =   84.817360
                    b =      2.847390          beta  =   81.905730
                    c =      7.522230          gamma =   82.917970

                       Current cell volume =            54.300032       A**3
                                   density =             4.372373   AMU/A**3
                                           =             7.260496     g/cm^3

                                     Cell Contents
                         Total number of ions in cell =    2
                      Total number of species in cell =    1
                        Max number of any one species =    2

            x  Element    Atom        Fractional coordinates of atoms  x
            x            Number           u          v          w      x
            x  Sn           1         0.986425   0.829098   0.598939   x
            x  Sn           2         0.369788   0.233005   0.839366   x

                         No user defined ionic velocities

                                   Details of Species

                               Mass of species in AMU
                                    Sn  118.7100000

                          Electric Quadrupole Moment (Barn)
                                    Sn    1.0000000 No Isotope Defined

                          Files used for pseudopotentials:
                                    Sn 3|2.2|7|7|9|50:51:42(qc=5)

                              k-Points For BZ Sampling
                       MP grid size for SCF calculation is  4  4  2
                            with an offset of   0.000  0.000  0.000
                       Number of kpoints used =            16

                               Symmetry and Constraints

                      Maximum deviation from symmetry = 0.188002E-14     ANG

                      Number of symmetry operations   =           2
                      Number of ionic constraints     =           3
                      Point group of crystal =     2: Ci, -1, -1
                      Space group of crystal =     2: P-1, -P 1

             Set iprint > 1 for details on symmetry rotations/translations

                         Centre of mass is constrained
             Set iprint > 1 for details of linear ionic constraints

                         Number of cell constraints= 0
                         Cell constraints are:  1 2 3 4 5 6

                         External pressure/stress (GPa)
                          0.00000   0.00000   0.00000
                                    0.00000   0.00000
                                              0.00000

Final energy, E             =  -4090.477008821     eV
Final free energy (E-TS)    =  -4090.519276483     eV
(energies not corrected for finite basis set)

NB est. 0K energy (E-0.5TS)      =  -4090.498142652     eV

WARNING - doing cell minimisation without finite basis correction:
        => now searching for a stationary and not minimum energy

 ******************************** Symmetrised Forces ********************************
 *                           Cartesian components (eV/A)                            *
 *                         x                    y                    z              *
 * Sn              1     -0.10196             -0.86286             -8.95831         *
 * Sn              2      0.10196              0.86286              8.95831         *

 *********** Symmetrised Stress Tensor ***********
 *          Cartesian components (GPa)           *
 *             x             y             z     *
 *  x    -55.135776      3.679104     -0.577656  *
 *  y      3.679104    -34.101074     -4.472765  *
 *  z     -0.577656     -4.472765    -21.246584  *
 *  Pressure:   36.8278                          *
 LBFGS: finished iteration     0 with enthalpy= -4.09051928E+003 eV

 +-----------+-----------------+-----------------+------------+-----+ <-- LBFGS
 | Parameter |      value      |    tolerance    |    units   | OK? | <-- LBFGS
 +-----------+-----------------+-----------------+------------+-----+ <-- LBFGS
 |  dE/ion   |   0.000000E+000 |   2.000000E-005 |         eV | No  | <-- LBFGS
 |  |F|max   |   9.000344E+000 |   5.000000E-002 |       eV/A | No  | <-- LBFGS
 |  |dR|max  |   0.000000E+000 |   1.000000E-003 |          A | No  | <-- LBFGS
[...]
 stress calculation                             : on
 density difference calculation                 : off
 electron localisation func (ELF) calculation   : off
 Hirshfeld analysis                             : off
 unlimited duration calculation
 timing information                             : on
 write extra output files                       : on
 write final potential to formatted file        : off
 write final density to formatted file          : off
 write structure in CELL formatted file         : on
 write BibTeX reference list                    : off
 write OTFG pseudopotential files               : off
 write electrostatic potential file             : off
 write bands file                               : off
 checkpoint writing                             : off

 output         length unit                     : A
 output           mass unit                     : amu
 output           time unit                     : ps
 output         charge unit                     : e
 output           spin unit                     : hbar/2
 output         energy unit                     : eV
 output          force unit                     : eV/A
 output       velocity unit                     : A/ps
 output       pressure unit                     : GPa
 output     inv_length unit                     : 1/A
 output      frequency unit                     : cm-1
 output force constant unit                     : eV/A**2
 output         volume unit                     : A**3
 output   IR intensity unit                     : (D/A)**2/amu
 output         dipole unit                     : D
 output         efield unit                     : eV/A/e
 output        entropy unit                     : J/mol/K

 wavefunctions paging                           : none
 random number generator seed                   : randomised (11804854)
 data distribution                              : optimal for this architecture
 optimization strategy                          : maximize speed(+++)

 *********************** Exchange-Correlation Parameters ***********************

 using functional                               : Perdew Burke Ernzerhof
 relativistic treatment                         : Koelling-Harmon
 DFT+D: Semi-empirical dispersion correction    : off

 ************************* Pseudopotential Parameters **************************

 pseudopotential representation                 : reciprocal space
 <beta|phi> representation                      : reciprocal space
 spin-orbit coupling                            : off

 **************************** Basis Set Parameters *****************************

 plane wave basis set cut-off                   :   250.0000   eV
 size of standard grid                          :     1.7500
 size of   fine   gmax                          :    14.1758   1/A
 finite basis set correction                    : none

 **************************** Electronic Parameters ****************************

 number of  electrons                           :  28.00
 net charge of system                           :  0.000
 treating system as non-spin-polarized
 number of bands                                :         18

 ********************* Electronic Minimization Parameters **********************

 Method: Treating system as metallic with density mixing treatment of electrons,
         and number of  SD  steps               :          1
         and number of  CG  steps               :          4

 total energy / atom convergence tol.           : 0.1000E-04   eV
 eigen-energy convergence tolerance             : 0.1000E-05   eV
 max force / atom convergence tol.              : ignored
 convergence tolerance window                   :          3   cycles
 max. number of SCF cycles                      :       1000
 number of fixed-spin iterations                :         10
 smearing scheme                                : Gaussian
 smearing width                                 : 0.2000       eV
 Fermi energy convergence tolerance             : 0.2721E-13   eV
 periodic dipole correction                     : NONE

 ************************** Density Mixing Parameters **************************

 density-mixing scheme                          : Pulay
 max. length of mixing history                  :         20
 charge density mixing amplitude                : 0.8000
 cut-off energy for mixing                      :  250.0       eV

 *********************** Population Analysis Parameters ************************

 Population analysis with cutoff                :  3.000       A
 Population analysis output                     : summary and pdos components

 ********************** Geometry Optimization Parameters ***********************

 optimization method                            : LBFGS
 max. no. of LBFGS updates                      : unbounded
 variable cell method                           : fixed basis size
 max. number of steps                           :          3
 estimated bulk modulus                         :  500.0       GPa
 estimated <frequency>                          :  1668.       cm-1
 geom line minimiser                            : on
 with line minimiser tolerance                  :     0.4000
 total energy convergence tolerance             : 0.2000E-04   eV/atom
        max ionic |force| tolerance             : 0.5000E-01   eV/A
 max ionic |displacement| tolerance             : 0.1000E-02   A
   max |stress component| tolerance             : 0.1000       GPa
 convergence tolerance window                   :          2   steps
 backup results every                           : 2147483647   steps
 write geom trajectory file                     : off

[...]

                       Current cell volume =            47.381724       A**3
                                   density =             5.010793   AMU/A**3
                                           =             8.320617     g/cm^3

                                     Cell Contents
                         Total number of ions in cell =    2
                      Total number of species in cell =    1
                        Max number of any one species =    2

[...]

                         No user defined ionic velocities

                                   Details of Species

                               Mass of species in AMU
                                    Sn  118.7100000

                          Electric Quadrupole Moment (Barn)
                                    Sn    1.0000000 No Isotope Defined

                          Files used for pseudopotentials:
                                    Sn 3|2.2|7|7|9|50:51:42(qc=5)

                              k-Points For BZ Sampling
                       MP grid size for SCF calculation is  4  4  2
                            with an offset of   0.000  0.000  0.000
                       Number of kpoints used =            16

                               Symmetry and Constraints

                      Maximum deviation from symmetry = 0.470004E-15     ANG

                      Number of symmetry operations   =           2
                      Number of ionic constraints     =           3
                      Point group of crystal =     2: Ci, -1, -1
                      Space group of crystal =     2: P-1, -P 1

             Set iprint > 1 for details on symmetry rotations/translations

                         Centre of mass is constrained
             Set iprint > 1 for details of linear ionic constraints

                         Number of cell constraints= 0
                         Cell constraints are:  1 2 3 4 5 6

                         External pressure/stress (GPa)
                          0.00000   0.00000   0.00000
                                    0.00000   0.00000
                                              0.00000

[...]

WARNING - doing cell minimisation without finite basis correction:
        => now searching for a stationary and not minimum energy

[...]

 *********** Symmetrised Stress Tensor ***********
 *          Cartesian components (GPa)           *
 *             x             y             z     *
 *  x     -0.595596      0.060916     -0.191781  *
 *  y      0.060916     -0.299665      0.564510  *
 *  z     -0.191781      0.564510      1.925571  *
 *  Pressure:   -0.3434                          *
 LBFGS: finished iteration     0 with enthalpy= -4.09464500E+003 eV

[...]

 LBFGS: improving iteration         1 with quad minimization (lambda= 70.155458)

[...]

 +------------+-------------+-------------+-----------------+ <-- min LBFGS
 |    Step    |   lambda    |   F.delta'  |    enthalpy     | <-- min LBFGS
 +------------+-------------+-------------+-----------------+ <-- min LBFGS
 |  previous  |    0.000000 |    0.631676 |    -4094.645004 | <-- min LBFGS
 | trial step |    1.000000 |    0.623719 |    -4094.675613 | <-- min LBFGS
 |  line step |   35.077729 |    0.344233 |    -4095.485751 | <-- min LBFGS
 |  quad step |   70.155458 |   -0.066533 |    -4095.751560 | <-- min LBFGS
 +------------+-------------+-------------+-----------------+ <-- min LBFGS

[...]

 Starting LBFGS iteration          3 ...

 +------------+-------------+-------------+-----------------+ <-- min LBFGS
 |    Step    |   lambda    |   F.delta'  |    enthalpy     | <-- min LBFGS
 +------------+-------------+-------------+-----------------+ <-- min LBFGS
 |  previous  |    0.000000 |    0.306762 |    -4096.001875 | <-- min LBFGS
 +------------+-------------+-------------+-----------------+ <-- min LBFGS

 LBFGS: starting iteration         3 with trial guess (lambda=  1.000000)

[...]

 +------------+-------------+-------------+-----------------+ <-- min LBFGS
 |    Step    |   lambda    |   F.delta'  |    enthalpy     | <-- min LBFGS
 +------------+-------------+-------------+-----------------+ <-- min LBFGS
 |  previous  |    0.000000 |    0.306762 |    -4096.001875 | <-- min LBFGS
 | trial step |    1.000000 |    0.131415 |    -4096.131192 | <-- min LBFGS
 +------------+-------------+-------------+-----------------+ <-- min LBFGS

 LBFGS: improving iteration         3 with line minimization (lambda=  1.749460)

[...]

------------------------------------------------------------------------ <-- SCF
SCF loop      Energy           Fermi           Energy gain       Timer   <-- SCF
                               energy          per atom          (sec)   <-- SCF
------------------------------------------------------------------------ <-- SCF
Initial  -4.09478200E+003  0.00000000E+000                        47.59  <-- SCF
      1  -4.11039295E+003  9.87756464E+000   7.80547539E+000      48.03  <-- SCF
      2  -4.11046617E+003  9.87279340E+000   3.66099263E-002      48.46  <-- SCF
      3  -4.09668371E+003  9.99810855E+000  -6.89123214E+000      48.94  <-- SCF
      4  -4.09681291E+003  9.99240929E+000   6.45989084E-002      49.38  <-- SCF
      5  -4.09615169E+003  1.00264404E+001  -3.30606343E-001      49.83  <-- SCF
      6  -4.09615781E+003  1.00278123E+001   3.05927820E-003      50.39  <-- SCF
      7  -4.09615785E+003  1.00284733E+001   1.98868836E-005      50.84  <-- SCF
      8  -4.09615785E+003  1.00284226E+001  -2.09351250E-006      51.17  <-- SCF
      9  -4.09615785E+003  1.00284908E+001   1.00509061E-006      51.47  <-- SCF
------------------------------------------------------------------------ <-- SCF

Final energy, E             =  -4096.138720229     eV
Final free energy (E-TS)    =  -4096.157849167     eV
(energies not corrected for finite basis set)

NB est. 0K energy (E-0.5TS)      =  -4096.148284698     eV

[...]

 +------------+-------------+-------------+-----------------+ <-- min LBFGS
 |    Step    |   lambda    |   F.delta'  |    enthalpy     | <-- min LBFGS
 +------------+-------------+-------------+-----------------+ <-- min LBFGS
 |  previous  |    0.000000 |    0.306762 |    -4096.001875 | <-- min LBFGS
 | trial step |    1.000000 |    0.131415 |    -4096.131192 | <-- min LBFGS
 |  line step |    1.749460 |   -0.020556 |    -4096.157849 | <-- min LBFGS
 +------------+-------------+-------------+-----------------+ <-- min LBFGS

 LBFGS: finished iteration     3 with enthalpy= -4.09615785E+003 eV

 +-----------+-----------------+-----------------+------------+-----+ <-- LBFGS
 | Parameter |      value      |    tolerance    |    units   | OK? | <-- LBFGS
 +-----------+-----------------+-----------------+------------+-----+ <-- LBFGS
 |  dE/ion   |   7.798703E-002 |   2.000000E-005 |         eV | No  | <-- LBFGS
 |  |F|max   |   2.829482E-001 |   5.000000E-002 |       eV/A | No  | <-- LBFGS
 |  |dR|max  |   9.989927E-002 |   1.000000E-003 |          A | No  | <-- LBFGS
 |   Smax    |   9.571208E+000 |   1.000000E-001 |        GPa | No  | <-- LBFGS
 +-----------+-----------------+-----------------+------------+-----+ <-- LBFGS

 LBFGS: WARNING - Geometry optimization failed to converge after          3 steps

 LBFGS: Final Configuration:

                                      Unit Cell
        Real Lattice(A)              Reciprocal Lattice(1/A)
     2.8541822    -0.0675184     0.0371577        2.202089557  -0.250909092  -0.509193710
     0.3227923     2.8811324    -0.0237330        0.054759201   2.172539457  -0.258526976
     1.2770767     0.5904059     5.2319950       -0.015390879   0.011636894   1.203359348

                       Lattice parameters(A)       Cell Angles
                    a =      2.855222          alpha =   82.725027
                    b =      2.899255          beta  =   75.781497
                    c =      5.417866          gamma =   84.969291

                Current cell volume =            43.050574 A**3

                                     Cell Contents

            x  Element         Atom        Fractional coordinates of atoms  x
            x                 Number           u          v          w      x
            x  Sn                1         1.036683   0.854254   0.478289   x
            x  Sn                2         0.319530   0.207849   0.960016   x

 LBFGS: Final Enthalpy     = -4.09615785E+003 eV
 LBFGS: Final <frequency>  =     894.34985 cm-1
 LBFGS: Final bulk modulus =     492.65101 GPa

  *** There were at least     2 warnings during this run ***
  *** => please check the whole of this file carefully!  ***

 ******************************** Symmetrised Forces ********************************
 *                           Cartesian components (eV/A)                            *
 *                         x                    y                    z              *
 * Sn              1     -0.03143             -0.21920             -0.17614         *
 * Sn              2      0.03143              0.21920              0.17614         *

 *********** Symmetrised Stress Tensor ***********
 *          Cartesian components (GPa)           *
 *             x             y             z     *
 *  x     -7.048877     -4.347568      1.899469  *
 *  y     -4.347568     -6.659756      0.124202  *
 *  z      1.899469      0.124202     -9.571208  *
 *  Pressure:    7.7599                          *

 Pseudo atomic calculation performed for Sn 4d10 5s2 5p2

 Converged in 27 iterations to a total energy of -2044.0517 eV

Charge spilling parameter for spin component 1 = 0.23%

            Orbital Populations
     Ion    Atom   Orbital             Charge
     Sn     1      Dzz                  1.998
     Sn     1      Dzy                  1.999
     Sn     1      Dzx                  1.999
     Sn     1      Dxx-yy               1.998
     Sn     1      Dxy                  1.999
     Sn     1      S                    1.244
     Sn     1      Px                   0.782
     Sn     1      Py                   0.821
     Sn     1      Pz                   0.791
     Sn     1      S                    0.368
     Sn     2      Dzz                  1.998
     Sn     2      Dzy                  1.999
     Sn     2      Dzx                  1.999
     Sn     2      Dxx-yy               1.998
     Sn     2      Dxy                  1.999
     Sn     2      S                    1.244
     Sn     2      Px                   0.782
     Sn     2      Py                   0.821
     Sn     2      Pz                   0.791
     Sn     2      S                    0.368
                           Total:      28.000

     Atomic Populations (Mulliken)
Species          Ion     s      p      d      f     Total  Charge (e)
  Sn              1     1.61   2.39   9.99   0.00  14.00     0.00
  Sn              2     1.61   2.39   9.99   0.00  14.00     0.00

                 Bond                   Population      Length (A)

Initialisation time =     12.89 s
Calculation time    =     39.47 s
Finalisation time   =      0.01 s
Total time          =     52.37 s