 Run started: Sun, 11 Nov 2018 14:20:41 +0000

 Atomic calculation performed for Sn:

 Converged in 79 iterations to an ae energy of -168090.064 eV

 Pseudo atomic calculation performed for Sn 4d10 5s2 5p2

 Converged in 27 iterations to a total energy of -2044.0517 eV

 Calculation not parallelised.

 ************************************ Title ************************************

 ***************************** General Parameters ******************************

 output verbosity                               : normal  (1)
 write checkpoint data to                       : ./Sn-19595-7369-74.check
 type of calculation                            : geometry optimization
 stress calculation                             : on
 density difference calculation                 : off
 electron localisation func (ELF) calculation   : off
 Hirshfeld analysis                             : off
 unlimited duration calculation
 timing information                             : on
 write extra output files                       : on
 write final potential to formatted file        : off
 write final density to formatted file          : off
 write structure in CELL formatted file         : on
 write BibTeX reference list                    : off
 write OTFG pseudopotential files               : off
 write electrostatic potential file             : off
 write bands file                               : off
 checkpoint writing                             : off

 output         length unit                     : A
 output           mass unit                     : amu
 output           time unit                     : ps
 output         charge unit                     : e
 output           spin unit                     : hbar/2
 output         energy unit                     : eV
 output          force unit                     : eV/A
 output       velocity unit                     : A/ps
 output       pressure unit                     : GPa
 output     inv_length unit                     : 1/A
 output      frequency unit                     : cm-1
 output force constant unit                     : eV/A**2
 output         volume unit                     : A**3
 output   IR intensity unit                     : (D/A)**2/amu
 output         dipole unit                     : D
 output         efield unit                     : eV/A/e
 output        entropy unit                     : J/mol/K

 wavefunctions paging                           : none
 random number generator seed                   : randomised (142041145)
 data distribution                              : optimal for this architecture
 optimization strategy                          : maximize speed(+++)

 *********************** Exchange-Correlation Parameters ***********************

 using functional                               : Perdew Burke Ernzerhof
 relativistic treatment                         : Koelling-Harmon
 DFT+D: Semi-empirical dispersion correction    : off

 ************************* Pseudopotential Parameters **************************

 pseudopotential representation                 : reciprocal space
 <beta|phi> representation                      : reciprocal space
 spin-orbit coupling                            : off

 **************************** Basis Set Parameters *****************************

 plane wave basis set cut-off                   :   250.0000   eV
 size of standard grid                          :     1.7500
 size of   fine   gmax                          :    14.1758   1/A
 finite basis set correction                    : none

 **************************** Electronic Parameters ****************************

 number of  electrons                           :  28.00
 net charge of system                           :  0.000
 treating system as non-spin-polarized
 number of bands                                :         18

 ********************* Electronic Minimization Parameters **********************

 Method: Treating system as metallic with density mixing treatment of electrons,
         and number of  SD  steps               :          1
         and number of  CG  steps               :          4

 total energy / atom convergence tol.           : 0.1000E-04   eV
 eigen-energy convergence tolerance             : 0.1000E-05   eV
 max force / atom convergence tol.              : ignored
 convergence tolerance window                   :          3   cycles
 max. number of SCF cycles                      :       1000
 number of fixed-spin iterations                :         10
 smearing scheme                                : Gaussian
 smearing width                                 : 0.2000       eV
 Fermi energy convergence tolerance             : 0.2721E-13   eV
 periodic dipole correction                     : NONE

 ************************** Density Mixing Parameters **************************

 density-mixing scheme                          : Pulay
 max. length of mixing history                  :         20
 charge density mixing amplitude                : 0.8000
 cut-off energy for mixing                      :  250.0       eV

 *********************** Population Analysis Parameters ************************

 Population analysis with cutoff                :  3.000       A
 Population analysis output                     : summary and pdos components

 ********************** Geometry Optimization Parameters ***********************

 optimization method                            : LBFGS
 max. no. of LBFGS updates                      : unbounded
 variable cell method                           : fixed basis size
 max. number of steps                           :          3
 estimated bulk modulus                         :  500.0       GPa
 estimated <frequency>                          :  1668.       cm-1
 geom line minimiser                            : on
 with line minimiser tolerance                  :     0.4000
 total energy convergence tolerance             : 0.2000E-04   eV/atom
        max ionic |force| tolerance             : 0.5000E-01   eV/A
 max ionic |displacement| tolerance             : 0.1000E-02   A
   max |stress component| tolerance             : 0.1000       GPa
 convergence tolerance window                   :          2   steps
 backup results every                           : 2147483647   steps
 write geom trajectory file                     : off

                                      Unit Cell
        Real Lattice(A)                      Reciprocal Lattice(1/A)
     2.8966800     0.0000000     0.0000000        2.169098867  -0.612353648  -0.508018585
     1.0459125     3.7048652     0.0000000        0.000000000   1.695928189   0.005266391
     1.1485957    -0.0152863     4.9226115        0.000000000   0.000000000   1.276392685

                       Lattice parameters(A)       Cell Angles
                    a =      2.896680          alpha =   86.627660
                    b =      3.849670          beta  =   76.866190
                    c =      5.054860          gamma =   74.235210

                       Current cell volume =            52.828526       A**3
                                   density =             4.494163   AMU/A**3
                                           =             7.462733     g/cm^3

                                     Cell Contents
                         Total number of ions in cell =    2
                      Total number of species in cell =    1
                        Max number of any one species =    2

            x  Element    Atom        Fractional coordinates of atoms  x
            x            Number           u          v          w      x
            x  Sn           1         0.448884   0.740107   0.551089   x
            x  Sn           2         0.913684   0.156720   0.261508   x

                         No user defined ionic velocities

                                   Details of Species

                               Mass of species in AMU
                                    Sn  118.7100000

                          Electric Quadrupole Moment (Barn)
                                    Sn    1.0000000 No Isotope Defined

                          Files used for pseudopotentials:
                                    Sn 3|2.2|7|7|9|50:51:42(qc=5)

                              k-Points For BZ Sampling
                       MP grid size for SCF calculation is  4  3  3
                            with an offset of   0.000  0.000  0.000
                       Number of kpoints used =            18

                               Symmetry and Constraints

                      Maximum deviation from symmetry = 0.470004E-15     ANG

                      Number of symmetry operations   =           2
                      Number of ionic constraints     =           3
                      Point group of crystal =     2: Ci, -1, -1
                      Space group of crystal =     2: P-1, -P 1

             Set iprint > 1 for details on symmetry rotations/translations

                         Centre of mass is constrained
             Set iprint > 1 for details of linear ionic constraints

                         Number of cell constraints= 0
                         Cell constraints are:  1 2 3 4 5 6

                         External pressure/stress (GPa)
                          0.00000   0.00000   0.00000
                                    0.00000   0.00000
                                              0.00000

Final energy, E             =  -4093.990902367     eV
Final free energy (E-TS)    =  -4094.006678048     eV
(energies not corrected for finite basis set)

NB est. 0K energy (E-0.5TS)      =  -4093.998790208     eV

WARNING - doing cell minimisation without finite basis correction:
        => now searching for a stationary and not minimum energy

 ******************************** Symmetrised Forces ********************************
 *                           Cartesian components (eV/A)                            *
 *                         x                    y                    z              *
 * Sn              1     -0.07466             -2.06499              5.17624         *
 * Sn              2      0.07466              2.06499             -5.17624         *

 *********** Symmetrised Stress Tensor ***********
 *          Cartesian components (GPa)           *
 *             x             y             z     *
 *  x     -3.127156     -3.269057      0.552118  *
 *  y     -3.269057    -14.741236      9.612992  *
 *  z      0.552118      9.612992      9.442496  *
 *  Pressure:    2.8086                          *
 LBFGS: finished iteration     0 with enthalpy= -4.09400668E+003 eV

 +-----------+-----------------+-----------------+------------+-----+ <-- LBFGS
 | Parameter |      value      |    tolerance    |    units   | OK? | <-- LBFGS
 +-----------+-----------------+-----------------+------------+-----+ <-- LBFGS
 |  dE/ion   |   0.000000E+000 |   2.000000E-005 |         eV | No  | <-- LBFGS
 |  |F|max   |   5.573437E+000 |   5.000000E-002 |       eV/A | No  | <-- LBFGS
 |  |dR|max  |   0.000000E+000 |   1.000000E-003 |          A | No  | <-- LBFGS
[...]
 output           time unit                     : ps
 output         charge unit                     : e
 output           spin unit                     : hbar/2
 output         energy unit                     : eV
 output          force unit                     : eV/A
 output       velocity unit                     : A/ps
 output       pressure unit                     : GPa
 output     inv_length unit                     : 1/A
 output      frequency unit                     : cm-1
 output force constant unit                     : eV/A**2
 output         volume unit                     : A**3
 output   IR intensity unit                     : (D/A)**2/amu
 output         dipole unit                     : D
 output         efield unit                     : eV/A/e
 output        entropy unit                     : J/mol/K

 wavefunctions paging                           : none
 random number generator seed                   : randomised (143728928)
 data distribution                              : optimal for this architecture
 optimization strategy                          : maximize speed(+++)

 *********************** Exchange-Correlation Parameters ***********************

 using functional                               : Perdew Burke Ernzerhof
 relativistic treatment                         : Koelling-Harmon
 DFT+D: Semi-empirical dispersion correction    : off

 ************************* Pseudopotential Parameters **************************

 pseudopotential representation                 : reciprocal space
 <beta|phi> representation                      : reciprocal space
 spin-orbit coupling                            : off

 **************************** Basis Set Parameters *****************************

 plane wave basis set cut-off                   :   250.0000   eV
 size of standard grid                          :     1.7500
 size of   fine   gmax                          :    14.1758   1/A
 finite basis set correction                    : none

 **************************** Electronic Parameters ****************************

 number of  electrons                           :  28.00
 net charge of system                           :  0.000
 treating system as non-spin-polarized
 number of bands                                :         18

 ********************* Electronic Minimization Parameters **********************

 Method: Treating system as metallic with density mixing treatment of electrons,
         and number of  SD  steps               :          1
         and number of  CG  steps               :          4

 total energy / atom convergence tol.           : 0.1000E-04   eV
 eigen-energy convergence tolerance             : 0.1000E-05   eV
 max force / atom convergence tol.              : ignored
 convergence tolerance window                   :          3   cycles
 max. number of SCF cycles                      :       1000
 number of fixed-spin iterations                :         10
 smearing scheme                                : Gaussian
 smearing width                                 : 0.2000       eV
 Fermi energy convergence tolerance             : 0.2721E-13   eV
 periodic dipole correction                     : NONE

 ************************** Density Mixing Parameters **************************

 density-mixing scheme                          : Pulay
 max. length of mixing history                  :         20
 charge density mixing amplitude                : 0.8000
 cut-off energy for mixing                      :  250.0       eV

 *********************** Population Analysis Parameters ************************

 Population analysis with cutoff                :  3.000       A
 Population analysis output                     : summary and pdos components

 ********************** Geometry Optimization Parameters ***********************

 optimization method                            : LBFGS
 max. no. of LBFGS updates                      : unbounded
 variable cell method                           : fixed basis size
 max. number of steps                           :         20
 estimated bulk modulus                         :  500.0       GPa
 estimated <frequency>                          :  1668.       cm-1
 geom line minimiser                            : on
 with line minimiser tolerance                  :     0.4000
 total energy convergence tolerance             : 0.2000E-04   eV/atom
        max ionic |force| tolerance             : 0.5000E-01   eV/A
 max ionic |displacement| tolerance             : 0.1000E-02   A
   max |stress component| tolerance             : 0.1000       GPa
 convergence tolerance window                   :          2   steps
 backup results every                           : 2147483647   steps
 write geom trajectory file                     : off

[...]

                       Current cell volume =            40.987354       A**3
                                   density =             5.792518   AMU/A**3
                                           =             9.618703     g/cm^3

                                     Cell Contents
                         Total number of ions in cell =    2
                      Total number of species in cell =    1
                        Max number of any one species =    2

[...]

                         No user defined ionic velocities

                                   Details of Species

                               Mass of species in AMU
                                    Sn  118.7100000

                          Electric Quadrupole Moment (Barn)
                                    Sn    1.0000000 No Isotope Defined

                          Files used for pseudopotentials:
                                    Sn 3|2.2|7|7|9|50:51:42(qc=5)

                              k-Points For BZ Sampling
                       MP grid size for SCF calculation is  4  3  3
                            with an offset of   0.000  0.000  0.000
                       Number of kpoints used =            18

                               Symmetry and Constraints

                      Maximum deviation from symmetry = 0.940008E-15     ANG

                      Number of symmetry operations   =           2
                      Number of ionic constraints     =           3
                      Point group of crystal =     2: Ci, -1, -1
                      Space group of crystal =     2: P-1, -P 1

             Set iprint > 1 for details on symmetry rotations/translations

                         Centre of mass is constrained
             Set iprint > 1 for details of linear ionic constraints

                         Number of cell constraints= 0
                         Cell constraints are:  1 2 3 4 5 6

                         External pressure/stress (GPa)
                          0.00000   0.00000   0.00000
                                    0.00000   0.00000
                                              0.00000

[...]

WARNING - doing cell minimisation without finite basis correction:
        => now searching for a stationary and not minimum energy

[...]

 *********** Symmetrised Stress Tensor ***********
 *          Cartesian components (GPa)           *
 *             x             y             z     *
 *  x     -0.008910     -1.005957     -0.331759  *
 *  y     -1.005957      1.290562      0.642385  *
 *  z     -0.331759      0.642385      0.197556  *
 *  Pressure:   -0.4931                          *
 LBFGS: finished iteration     0 with enthalpy= -4.09529672E+003 eV

 +-----------+-----------------+-----------------+------------+-----+ <-- LBFGS
 | Parameter |      value      |    tolerance    |    units   | OK? | <-- LBFGS
 +-----------+-----------------+-----------------+------------+-----+ <-- LBFGS
 |  dE/ion   |   0.000000E+000 |   2.000000E-005 |         eV | No  | <-- LBFGS
 |  |F|max   |   8.419295E-003 |   5.000000E-002 |       eV/A | Yes | <-- LBFGS
 |  |dR|max  |   0.000000E+000 |   1.000000E-003 |          A | No  | <-- LBFGS
 |   Smax    |   1.290562E+000 |   1.000000E-001 |        GPa | No  | <-- LBFGS
 +-----------+-----------------+-----------------+------------+-----+ <-- LBFGS

[...]

 LBFGS: improving iteration         2 with line minimization (lambda=  1.471424)

[...]

 +------------+-------------+-------------+-----------------+ <-- min LBFGS
 |    Step    |   lambda    |   F.delta'  |    enthalpy     | <-- min LBFGS
 +------------+-------------+-------------+-----------------+ <-- min LBFGS
 |  previous  |    0.000000 |    0.007970 |    -4095.297605 | <-- min LBFGS
 | trial step |    1.000000 |    0.002554 |    -4095.297714 | <-- min LBFGS
 |  line step |    1.471424 |   -0.000755 |    -4095.297725 | <-- min LBFGS
 +------------+-------------+-------------+-----------------+ <-- min LBFGS

[...]

 +-----------+-----------------+-----------------+------------+-----+ <-- LBFGS
 | Parameter |      value      |    tolerance    |    units   | OK? | <-- LBFGS
 +-----------+-----------------+-----------------+------------+-----+ <-- LBFGS
 |  dE/ion   |   5.975897E-005 |   2.000000E-005 |         eV | No  | <-- LBFGS
 |  |F|max   |   1.222690E-002 |   5.000000E-002 |       eV/A | Yes | <-- LBFGS
 |  |dR|max  |   2.491515E-005 |   1.000000E-003 |          A | Yes | <-- LBFGS
 |   Smax    |   1.576264E-001 |   1.000000E-001 |        GPa | No  | <-- LBFGS
 +-----------+-----------------+-----------------+------------+-----+ <-- LBFGS

[...]

 +-----------+-----------------+-----------------+------------+-----+ <-- LBFGS
 | Parameter |      value      |    tolerance    |    units   | OK? | <-- LBFGS
 +-----------+-----------------+-----------------+------------+-----+ <-- LBFGS
 |  dE/ion   |   3.755606E-006 |   2.000000E-005 |         eV | Yes | <-- LBFGS
 |  |F|max   |   1.240220E-002 |   5.000000E-002 |       eV/A | Yes | <-- LBFGS
 |  |dR|max  |   9.218432E-006 |   1.000000E-003 |          A | Yes | <-- LBFGS
 |   Smax    |   1.944853E-001 |   1.000000E-001 |        GPa | No  | <-- LBFGS
 +-----------+-----------------+-----------------+------------+-----+ <-- LBFGS

 Starting LBFGS iteration          4 ...

 +------------+-------------+-------------+-----------------+ <-- min LBFGS
 |    Step    |   lambda    |   F.delta'  |    enthalpy     | <-- min LBFGS
 +------------+-------------+-------------+-----------------+ <-- min LBFGS
 |  previous  |    0.000000 |    0.001839 |    -4095.297732 | <-- min LBFGS
 +------------+-------------+-------------+-----------------+ <-- min LBFGS

 LBFGS: starting iteration         4 with trial guess (lambda=  1.000000)

[...]

------------------------------------------------------------------------ <-- SCF
SCF loop      Energy           Fermi           Energy gain       Timer   <-- SCF
                               energy          per atom          (sec)   <-- SCF
------------------------------------------------------------------------ <-- SCF
Initial  -4.09529545E+003  0.00000000E+000                        35.84  <-- SCF
      1  -4.09529896E+003  1.09160368E+001   1.75355837E-003      36.27  <-- SCF
      2  -4.09529897E+003  1.09160367E+001   4.00230290E-006      36.55  <-- SCF
      3  -4.09529776E+003  1.09169048E+001  -6.05568141E-004      37.01  <-- SCF
      4  -4.09529774E+003  1.09168835E+001  -9.26628576E-006      37.30  <-- SCF
      5  -4.09529774E+003  1.09169092E+001   8.61204500E-007      37.56  <-- SCF
------------------------------------------------------------------------ <-- SCF

Final energy, E             =  -4095.295559518     eV
Final free energy (E-TS)    =  -4095.297739040     eV
(energies not corrected for finite basis set)

NB est. 0K energy (E-0.5TS)      =  -4095.296649279     eV

[...]

 +------------+-------------+-------------+-----------------+ <-- min LBFGS
 |    Step    |   lambda    |   F.delta'  |    enthalpy     | <-- min LBFGS
 +------------+-------------+-------------+-----------------+ <-- min LBFGS
 |  previous  |    0.000000 |    0.001839 |    -4095.297732 | <-- min LBFGS
 | trial step |    1.000000 |   -0.000252 |    -4095.297739 | <-- min LBFGS
 +------------+-------------+-------------+-----------------+ <-- min LBFGS

 LBFGS: finished iteration     4 with enthalpy= -4.09529774E+003 eV

 +-----------+-----------------+-----------------+------------+-----+ <-- LBFGS
 | Parameter |      value      |    tolerance    |    units   | OK? | <-- LBFGS
 +-----------+-----------------+-----------------+------------+-----+ <-- LBFGS
 |  dE/ion   |   3.368868E-006 |   2.000000E-005 |         eV | Yes | <-- LBFGS
 |  |F|max   |   1.674191E-002 |   5.000000E-002 |       eV/A | Yes | <-- LBFGS
 |  |dR|max  |   2.321137E-005 |   1.000000E-003 |          A | Yes | <-- LBFGS
 |   Smax    |   5.088872E-002 |   1.000000E-001 |        GPa | Yes | <-- LBFGS
 +-----------+-----------------+-----------------+------------+-----+ <-- LBFGS

 LBFGS: Geometry optimization completed successfully.

 LBFGS: Final Configuration:

                                      Unit Cell
        Real Lattice(A)              Reciprocal Lattice(1/A)
     2.9107643     0.0246812     0.1861135        2.220106534  -0.633829172  -0.877840471
     1.0736431     3.8675702    -0.0772084       -0.021239448   1.632786917   0.115649442
     1.4105308    -0.2469517     3.7456167       -0.110751249   0.065150560   1.723479186

                       Lattice parameters(A)       Cell Angles
                    a =      2.916813          alpha =   89.038610
                    b =      4.014570          beta  =   65.788790
                    c =      4.010016          gamma =   74.109079

                Current cell volume =            40.944503 A**3

                                     Cell Contents

            x  Element         Atom        Fractional coordinates of atoms  x
            x                 Number           u          v          w      x
            x  Sn                1         0.182515   0.698311   0.656129   x
            x  Sn                2         1.180053   0.198516   0.156467   x

 LBFGS: Final Enthalpy     = -4.09529774E+003 eV
 LBFGS: Final <frequency>  =    1648.89945 cm-1
 LBFGS: Final bulk modulus =    1332.78220 GPa

  *** There were at least     1 warnings during this run ***
  *** => please check the whole of this file carefully!  ***

 ******************************** Symmetrised Forces ********************************
 *                           Cartesian components (eV/A)                            *
 *                         x                    y                    z              *
 * Sn              1     -0.00823              0.00565              0.01344         *
 * Sn              2      0.00823             -0.00565             -0.01344         *

 *********** Symmetrised Stress Tensor ***********
 *          Cartesian components (GPa)           *
 *             x             y             z     *
 *  x      0.032795     -0.006991      0.001302  *
 *  y     -0.006991      0.050889      0.042884  *
 *  z      0.001302      0.042884      0.031374  *
 *  Pressure:   -0.0384                          *

 Pseudo atomic calculation performed for Sn 4d10 5s2 5p2

 Converged in 27 iterations to a total energy of -2044.0517 eV

Charge spilling parameter for spin component 1 = 0.21%

            Orbital Populations
     Ion    Atom   Orbital             Charge
     Sn     1      Dzz                  1.999
     Sn     1      Dzy                  1.998
     Sn     1      Dzx                  1.999
     Sn     1      Dxx-yy               1.998
     Sn     1      Dxy                  1.999
     Sn     1      S                    1.315
     Sn     1      Px                   0.785
     Sn     1      Py                   0.843
     Sn     1      Pz                   0.847
     Sn     1      S                    0.216
     Sn     2      Dzz                  1.999
     Sn     2      Dzy                  1.998
     Sn     2      Dzx                  1.999
     Sn     2      Dxx-yy               1.998
     Sn     2      Dxy                  1.999
     Sn     2      S                    1.315
     Sn     2      Px                   0.785
     Sn     2      Py                   0.843
     Sn     2      Pz                   0.847
     Sn     2      S                    0.216
                           Total:      28.000

     Atomic Populations (Mulliken)
Species          Ion     s      p      d      f     Total  Charge (e)
  Sn              1     1.53   2.48   9.99   0.00  14.00     0.00
  Sn              2     1.53   2.48   9.99   0.00  14.00     0.00

                 Bond                   Population      Length (A)

Initialisation time =     12.96 s
Calculation time    =     25.50 s
Finalisation time   =      0.01 s
Total time          =     38.46 s