 Run started: Sun, 11 Nov 2018 14:25:16 +0000

 Atomic calculation performed for Sn:

 Converged in 79 iterations to an ae energy of -168090.064 eV

 Pseudo atomic calculation performed for Sn 4d10 5s2 5p2

 Converged in 27 iterations to a total energy of -2044.0517 eV

 Calculation not parallelised.

 ************************************ Title ************************************

 ***************************** General Parameters ******************************

 output verbosity                               : normal  (1)
 write checkpoint data to                       : ./Sn-20052-7061-74.check
 type of calculation                            : geometry optimization
 stress calculation                             : on
 density difference calculation                 : off
 electron localisation func (ELF) calculation   : off
 Hirshfeld analysis                             : off
 unlimited duration calculation
 timing information                             : on
 write extra output files                       : on
 write final potential to formatted file        : off
 write final density to formatted file          : off
 write structure in CELL formatted file         : on
 write BibTeX reference list                    : off
 write OTFG pseudopotential files               : off
 write electrostatic potential file             : off
 write bands file                               : off
 checkpoint writing                             : off

 output         length unit                     : A
 output           mass unit                     : amu
 output           time unit                     : ps
 output         charge unit                     : e
 output           spin unit                     : hbar/2
 output         energy unit                     : eV
 output          force unit                     : eV/A
 output       velocity unit                     : A/ps
 output       pressure unit                     : GPa
 output     inv_length unit                     : 1/A
 output      frequency unit                     : cm-1
 output force constant unit                     : eV/A**2
 output         volume unit                     : A**3
 output   IR intensity unit                     : (D/A)**2/amu
 output         dipole unit                     : D
 output         efield unit                     : eV/A/e
 output        entropy unit                     : J/mol/K

 wavefunctions paging                           : none
 random number generator seed                   : randomised (142516496)
 data distribution                              : optimal for this architecture
 optimization strategy                          : maximize speed(+++)

 *********************** Exchange-Correlation Parameters ***********************

 using functional                               : Perdew Burke Ernzerhof
 relativistic treatment                         : Koelling-Harmon
 DFT+D: Semi-empirical dispersion correction    : off

 ************************* Pseudopotential Parameters **************************

 pseudopotential representation                 : reciprocal space
 <beta|phi> representation                      : reciprocal space
 spin-orbit coupling                            : off

 **************************** Basis Set Parameters *****************************

 plane wave basis set cut-off                   :   250.0000   eV
 size of standard grid                          :     1.7500
 size of   fine   gmax                          :    14.1758   1/A
 finite basis set correction                    : none

 **************************** Electronic Parameters ****************************

 number of  electrons                           :  28.00
 net charge of system                           :  0.000
 treating system as non-spin-polarized
 number of bands                                :         18

 ********************* Electronic Minimization Parameters **********************

 Method: Treating system as metallic with density mixing treatment of electrons,
         and number of  SD  steps               :          1
         and number of  CG  steps               :          4

 total energy / atom convergence tol.           : 0.1000E-04   eV
 eigen-energy convergence tolerance             : 0.1000E-05   eV
 max force / atom convergence tol.              : ignored
 convergence tolerance window                   :          3   cycles
 max. number of SCF cycles                      :       1000
 number of fixed-spin iterations                :         10
 smearing scheme                                : Gaussian
 smearing width                                 : 0.2000       eV
 Fermi energy convergence tolerance             : 0.2721E-13   eV
 periodic dipole correction                     : NONE

 ************************** Density Mixing Parameters **************************

 density-mixing scheme                          : Pulay
 max. length of mixing history                  :         20
 charge density mixing amplitude                : 0.8000
 cut-off energy for mixing                      :  250.0       eV

 *********************** Population Analysis Parameters ************************

 Population analysis with cutoff                :  3.000       A
 Population analysis output                     : summary and pdos components

 ********************** Geometry Optimization Parameters ***********************

 optimization method                            : LBFGS
 max. no. of LBFGS updates                      : unbounded
 variable cell method                           : fixed basis size
 max. number of steps                           :          3
 estimated bulk modulus                         :  500.0       GPa
 estimated <frequency>                          :  1668.       cm-1
 geom line minimiser                            : on
 with line minimiser tolerance                  :     0.4000
 total energy convergence tolerance             : 0.2000E-04   eV/atom
        max ionic |force| tolerance             : 0.5000E-01   eV/A
 max ionic |displacement| tolerance             : 0.1000E-02   A
   max |stress component| tolerance             : 0.1000       GPa
 convergence tolerance window                   :          2   steps
 backup results every                           : 2147483647   steps
 write geom trajectory file                     : off

                                      Unit Cell
        Real Lattice(A)                      Reciprocal Lattice(1/A)
     3.6737700     0.0000000     0.0000000        1.710282709   0.736770060   0.195935973
    -1.5972848     3.7078171     0.0000000        0.000000000   1.694578027   0.391110584
    -0.0613366    -0.9352276     4.0520921        0.000000000   0.000000000   1.550602785

                       Lattice parameters(A)       Cell Angles
                    a =      3.673770          alpha =  101.576860
                    b =      4.037230          beta  =   90.845010
                    c =      4.159070          gamma =  113.305820

                       Current cell volume =            55.196250       A**3
                                   density =             4.301379   AMU/A**3
                                           =             7.142608     g/cm^3

                                     Cell Contents
                         Total number of ions in cell =    2
                      Total number of species in cell =    1
                        Max number of any one species =    2

            x  Element    Atom        Fractional coordinates of atoms  x
            x            Number           u          v          w      x
            x  Sn           1         0.065946  -0.001447   0.158540   x
            x  Sn           2         0.433027   0.677912   0.397112   x

                         No user defined ionic velocities

                                   Details of Species

                               Mass of species in AMU
                                    Sn  118.7100000

                          Electric Quadrupole Moment (Barn)
                                    Sn    1.0000000 No Isotope Defined

                          Files used for pseudopotentials:
                                    Sn 3|2.2|7|7|9|50:51:42(qc=5)

                              k-Points For BZ Sampling
                       MP grid size for SCF calculation is  3  3  3
                            with an offset of   0.000  0.000  0.000
                       Number of kpoints used =            14

                               Symmetry and Constraints

                      Maximum deviation from symmetry = 0.940008E-15     ANG

                      Number of symmetry operations   =           2
                      Number of ionic constraints     =           3
                      Point group of crystal =     2: Ci, -1, -1
                      Space group of crystal =     2: P-1, -P 1

             Set iprint > 1 for details on symmetry rotations/translations

                         Centre of mass is constrained
             Set iprint > 1 for details of linear ionic constraints

                         Number of cell constraints= 0
                         Cell constraints are:  1 2 3 4 5 6

                         External pressure/stress (GPa)
                          0.00000   0.00000   0.00000
                                    0.00000   0.00000
                                              0.00000

Final energy, E             =  -4093.709912979     eV
Final free energy (E-TS)    =  -4093.746789147     eV
(energies not corrected for finite basis set)

NB est. 0K energy (E-0.5TS)      =  -4093.728351063     eV

WARNING - doing cell minimisation without finite basis correction:
        => now searching for a stationary and not minimum energy

 ******************************** Symmetrised Forces ********************************
 *                           Cartesian components (eV/A)                            *
 *                         x                    y                    z              *
 * Sn              1     -0.11864              1.21041             -3.68470         *
 * Sn              2      0.11864             -1.21041              3.68470         *

 *********** Symmetrised Stress Tensor ***********
 *          Cartesian components (GPa)           *
 *             x             y             z     *
 *  x     -5.562420     -0.563422      0.454418  *
 *  y     -0.563422    -13.320422      2.819638  *
 *  z      0.454418      2.819638     14.683494  *
 *  Pressure:    1.3998                          *
 LBFGS: finished iteration     0 with enthalpy= -4.09374679E+003 eV

 +-----------+-----------------+-----------------+------------+-----+ <-- LBFGS
 | Parameter |      value      |    tolerance    |    units   | OK? | <-- LBFGS
 +-----------+-----------------+-----------------+------------+-----+ <-- LBFGS
 |  dE/ion   |   0.000000E+000 |   2.000000E-005 |         eV | No  | <-- LBFGS
 |  |F|max   |   3.880231E+000 |   5.000000E-002 |       eV/A | No  | <-- LBFGS
 |  |dR|max  |   1.101571E-016 |   1.000000E-003 |          A | No  | <-- LBFGS
[...]
 max force / atom convergence tol.              : ignored
 convergence tolerance window                   :          3   cycles
 max. number of SCF cycles                      :       1000
 number of fixed-spin iterations                :         10
 smearing scheme                                : Gaussian
 smearing width                                 : 0.2000       eV
 Fermi energy convergence tolerance             : 0.2721E-13   eV
 periodic dipole correction                     : NONE

 ************************** Density Mixing Parameters **************************

 density-mixing scheme                          : Pulay
 max. length of mixing history                  :         20
 charge density mixing amplitude                : 0.8000
 cut-off energy for mixing                      :  250.0       eV

 *********************** Population Analysis Parameters ************************

 Population analysis with cutoff                :  3.000       A
 Population analysis output                     : summary and pdos components

 ********************** Geometry Optimization Parameters ***********************

 optimization method                            : LBFGS
 max. no. of LBFGS updates                      : unbounded
 variable cell method                           : fixed basis size
 max. number of steps                           :         20
 estimated bulk modulus                         :  500.0       GPa
 estimated <frequency>                          :  1668.       cm-1
 geom line minimiser                            : on
 with line minimiser tolerance                  :     0.4000
 total energy convergence tolerance             : 0.2000E-04   eV/atom
        max ionic |force| tolerance             : 0.5000E-01   eV/A
 max ionic |displacement| tolerance             : 0.1000E-02   A
   max |stress component| tolerance             : 0.1000       GPa
 convergence tolerance window                   :          2   steps
 backup results every                           : 2147483647   steps
 write geom trajectory file                     : off

[...]

                       Current cell volume =            40.750048       A**3
                                   density =             5.826251   AMU/A**3
                                           =             9.674717     g/cm^3

                                     Cell Contents
                         Total number of ions in cell =    2
                      Total number of species in cell =    1
                        Max number of any one species =    2

[...]

                         No user defined ionic velocities

                                   Details of Species

                               Mass of species in AMU
                                    Sn  118.7100000

                          Electric Quadrupole Moment (Barn)
                                    Sn    1.0000000 No Isotope Defined

                          Files used for pseudopotentials:
                                    Sn 3|2.2|7|7|9|50:51:42(qc=5)

                              k-Points For BZ Sampling
                       MP grid size for SCF calculation is  3  3  4
                            with an offset of   0.000  0.000  0.000
                       Number of kpoints used =            18

                               Symmetry and Constraints

                      Maximum deviation from symmetry = 0.117501E-15     ANG

                      Number of symmetry operations   =           2
                      Number of ionic constraints     =           3
                      Point group of crystal =     2: Ci, -1, -1
                      Space group of crystal =     2: P-1, -P 1

             Set iprint > 1 for details on symmetry rotations/translations

                         Centre of mass is constrained
             Set iprint > 1 for details of linear ionic constraints

                         Number of cell constraints= 0
                         Cell constraints are:  1 2 3 4 5 6

                         External pressure/stress (GPa)
                          0.00000   0.00000   0.00000
                                    0.00000   0.00000
                                              0.00000

[...]

WARNING - doing cell minimisation without finite basis correction:
        => now searching for a stationary and not minimum energy

[...]

 *********** Symmetrised Stress Tensor ***********
 *          Cartesian components (GPa)           *
 *             x             y             z     *
 *  x      6.004485      1.407136     -0.884378  *
 *  y      1.407136      2.403308     -3.430616  *
 *  z     -0.884378     -3.430616     -4.277468  *
 *  Pressure:   -1.3768                          *
 LBFGS: finished iteration     0 with enthalpy= -4.09537298E+003 eV

 +-----------+-----------------+-----------------+------------+-----+ <-- LBFGS
 | Parameter |      value      |    tolerance    |    units   | OK? | <-- LBFGS
 +-----------+-----------------+-----------------+------------+-----+ <-- LBFGS
 |  dE/ion   |   0.000000E+000 |   2.000000E-005 |         eV | No  | <-- LBFGS
 |  |F|max   |   6.220930E-002 |   5.000000E-002 |       eV/A | No  | <-- LBFGS
 |  |dR|max  |   2.350019E-016 |   1.000000E-003 |          A | No  | <-- LBFGS
 |   Smax    |   6.004485E+000 |   1.000000E-001 |        GPa | No  | <-- LBFGS
 +-----------+-----------------+-----------------+------------+-----+ <-- LBFGS

[...]

 LBFGS: improving iteration         1 with quad minimization (lambda= 15.214802)

[...]

 +------------+-------------+-------------+-----------------+ <-- min LBFGS
 |    Step    |   lambda    |   F.delta'  |    enthalpy     | <-- min LBFGS
 +------------+-------------+-------------+-----------------+ <-- min LBFGS
 |  previous  |    0.000000 |    0.088309 |    -4095.372976 | <-- min LBFGS
 | trial step |    1.000000 |    0.073543 |    -4095.386810 | <-- min LBFGS
 |  line step |    5.980780 |    0.047774 |    -4095.433186 | <-- min LBFGS
 |  quad step |   15.214802 |   -0.226457 |    -4095.295020 | <-- min LBFGS
 +------------+-------------+-------------+-----------------+ <-- min LBFGS

 LBFGS: reverting to earlier configuration

[...]

 +-----------+-----------------+-----------------+------------+-----+ <-- LBFGS
 | Parameter |      value      |    tolerance    |    units   | OK? | <-- LBFGS
 +-----------+-----------------+-----------------+------------+-----+ <-- LBFGS
 |  dE/ion   |   9.765423E-006 |   2.000000E-005 |         eV | Yes | <-- LBFGS
 |  |F|max   |   7.223321E-002 |   5.000000E-002 |       eV/A | No  | <-- LBFGS
 |  |dR|max  |   1.490706E-004 |   1.000000E-003 |          A | Yes | <-- LBFGS
 |   Smax    |   8.635179E-002 |   1.000000E-001 |        GPa | Yes | <-- LBFGS
 +-----------+-----------------+-----------------+------------+-----+ <-- LBFGS

[...]

 +-----------+-----------------+-----------------+------------+-----+ <-- LBFGS
 | Parameter |      value      |    tolerance    |    units   | OK? | <-- LBFGS
 +-----------+-----------------+-----------------+------------+-----+ <-- LBFGS
 |  dE/ion   |   2.098186E-005 |   2.000000E-005 |         eV | No  | <-- LBFGS
 |  |F|max   |   6.065287E-002 |   5.000000E-002 |       eV/A | No  | <-- LBFGS
 |  |dR|max  |   6.872628E-004 |   1.000000E-003 |          A | Yes | <-- LBFGS
 |   Smax    |   2.043902E-001 |   1.000000E-001 |        GPa | No  | <-- LBFGS
 +-----------+-----------------+-----------------+------------+-----+ <-- LBFGS

[...]

 +-----------+-----------------+-----------------+------------+-----+ <-- LBFGS
 | Parameter |      value      |    tolerance    |    units   | OK? | <-- LBFGS
 +-----------+-----------------+-----------------+------------+-----+ <-- LBFGS
 |  dE/ion   |   4.261264E-005 |   2.000000E-005 |         eV | No  | <-- LBFGS
 |  |F|max   |   3.484724E-002 |   5.000000E-002 |       eV/A | Yes | <-- LBFGS
 |  |dR|max  |   1.115773E-003 |   1.000000E-003 |          A | No  | <-- LBFGS
 |   Smax    |   3.007558E-001 |   1.000000E-001 |        GPa | No  | <-- LBFGS
 +-----------+-----------------+-----------------+------------+-----+ <-- LBFGS

[...]

 LBFGS: improving iteration        11 with line minimization (lambda=  2.786276)

[...]

 +------------+-------------+-------------+-----------------+ <-- min LBFGS
 |    Step    |   lambda    |   F.delta'  |    enthalpy     | <-- min LBFGS
 +------------+-------------+-------------+-----------------+ <-- min LBFGS
 |  previous  |    0.000000 |    0.005542 |    -4095.468809 | <-- min LBFGS
 | trial step |    1.000000 |    0.003553 |    -4095.468854 | <-- min LBFGS
 |  line step |    2.786276 |    0.000640 |    -4095.468894 | <-- min LBFGS
 +------------+-------------+-------------+-----------------+ <-- min LBFGS

[...]

 +-----------+-----------------+-----------------+------------+-----+ <-- LBFGS
 | Parameter |      value      |    tolerance    |    units   | OK? | <-- LBFGS
 +-----------+-----------------+-----------------+------------+-----+ <-- LBFGS
 |  dE/ion   |   4.265462E-005 |   2.000000E-005 |         eV | No  | <-- LBFGS
 |  |F|max   |   4.034108E-002 |   5.000000E-002 |       eV/A | Yes | <-- LBFGS
 |  |dR|max  |   4.097448E-004 |   1.000000E-003 |          A | Yes | <-- LBFGS
 |   Smax    |   2.007198E-001 |   1.000000E-001 |        GPa | No  | <-- LBFGS
 +-----------+-----------------+-----------------+------------+-----+ <-- LBFGS

[...]

 +-----------+-----------------+-----------------+------------+-----+ <-- LBFGS
 | Parameter |      value      |    tolerance    |    units   | OK? | <-- LBFGS
 +-----------+-----------------+-----------------+------------+-----+ <-- LBFGS
 |  dE/ion   |   1.837950E-005 |   2.000000E-005 |         eV | Yes | <-- LBFGS
 |  |F|max   |   2.940464E-002 |   5.000000E-002 |       eV/A | Yes | <-- LBFGS
 |  |dR|max  |   1.175414E-003 |   1.000000E-003 |          A | No  | <-- LBFGS
 |   Smax    |   5.681745E-002 |   1.000000E-001 |        GPa | Yes | <-- LBFGS
 +-----------+-----------------+-----------------+------------+-----+ <-- LBFGS

 Starting LBFGS iteration         13 ...

 +------------+-------------+-------------+-----------------+ <-- min LBFGS
 |    Step    |   lambda    |   F.delta'  |    enthalpy     | <-- min LBFGS
 +------------+-------------+-------------+-----------------+ <-- min LBFGS
 |  previous  |    0.000000 |    0.001448 |    -4095.468931 | <-- min LBFGS
 +------------+-------------+-------------+-----------------+ <-- min LBFGS

 LBFGS: starting iteration        13 with trial guess (lambda=  1.000000)

[...]

------------------------------------------------------------------------ <-- SCF
SCF loop      Energy           Fermi           Energy gain       Timer   <-- SCF
                               energy          per atom          (sec)   <-- SCF
------------------------------------------------------------------------ <-- SCF
Initial  -4.09546833E+003  0.00000000E+000                        71.37  <-- SCF
      1  -4.09546905E+003  1.14762035E+001   3.60862316E-004      71.73  <-- SCF
      2  -4.09546905E+003  1.14762034E+001   1.89666088E-006      71.94  <-- SCF
      3  -4.09546893E+003  1.14760369E+001  -6.03888849E-005      72.22  <-- SCF
      4  -4.09546893E+003  1.14761492E+001   8.10205733E-007      72.43  <-- SCF
      5  -4.09546893E+003  1.14760974E+001   5.40156619E-007      72.63  <-- SCF
------------------------------------------------------------------------ <-- SCF

Final energy, E             =  -4095.468438121     eV
Final free energy (E-TS)    =  -4095.468933814     eV
(energies not corrected for finite basis set)

NB est. 0K energy (E-0.5TS)      =  -4095.468685968     eV

[...]

 +------------+-------------+-------------+-----------------+ <-- min LBFGS
 |    Step    |   lambda    |   F.delta'  |    enthalpy     | <-- min LBFGS
 +------------+-------------+-------------+-----------------+ <-- min LBFGS
 |  previous  |    0.000000 |    0.001448 |    -4095.468931 | <-- min LBFGS
 | trial step |    1.000000 |    0.000087 |    -4095.468934 | <-- min LBFGS
 +------------+-------------+-------------+-----------------+ <-- min LBFGS

 LBFGS: finished iteration    13 with enthalpy= -4.09546893E+003 eV

 +-----------+-----------------+-----------------+------------+-----+ <-- LBFGS
 | Parameter |      value      |    tolerance    |    units   | OK? | <-- LBFGS
 +-----------+-----------------+-----------------+------------+-----+ <-- LBFGS
 |  dE/ion   |   1.472420E-006 |   2.000000E-005 |         eV | Yes | <-- LBFGS
 |  |F|max   |   2.697908E-002 |   5.000000E-002 |       eV/A | Yes | <-- LBFGS
 |  |dR|max  |   1.752865E-004 |   1.000000E-003 |          A | Yes | <-- LBFGS
 |   Smax    |   6.896083E-002 |   1.000000E-001 |        GPa | Yes | <-- LBFGS
 +-----------+-----------------+-----------------+------------+-----+ <-- LBFGS

 LBFGS: Geometry optimization completed successfully.

 LBFGS: Final Configuration:

                                      Unit Cell
        Real Lattice(A)              Reciprocal Lattice(1/A)
     3.1803530     0.6409225     0.1331541        1.901927573   0.321145522   0.214450239
    -0.7726602     4.2200963     0.5328916       -0.295508109   1.385813867   0.387677383
    -0.1765770    -0.8187418     2.7921251       -0.034302099  -0.279804941   2.166106478

                       Lattice parameters(A)       Cell Angles
                    a =      3.247023          alpha =   98.353328
                    b =      4.323215          beta  =   94.329469
                    c =      2.915044          gamma =   88.700393

                Current cell volume =            40.367658 A**3

                                     Cell Contents

            x  Element         Atom        Fractional coordinates of atoms  x
            x                 Number           u          v          w      x
            x  Sn                1        -0.000265   0.087235   0.035138   x
            x  Sn                2         0.499238   0.589230   0.520514   x

 LBFGS: Final Enthalpy     = -4.09546893E+003 eV
 LBFGS: Final <frequency>  =    1197.48705 cm-1
 LBFGS: Final bulk modulus =     623.37329 GPa

  *** There were at least     1 warnings during this run ***
  *** => please check the whole of this file carefully!  ***

 ******************************** Symmetrised Forces ********************************
 *                           Cartesian components (eV/A)                            *
 *                         x                    y                    z              *
 * Sn              1     -0.00858             -0.00075             -0.02557         *
 * Sn              2      0.00858              0.00075              0.02557         *

 *********** Symmetrised Stress Tensor ***********
 *          Cartesian components (GPa)           *
 *             x             y             z     *
 *  x     -0.068961      0.000659      0.003193  *
 *  y      0.000659     -0.059240     -0.013041  *
 *  z      0.003193     -0.013041     -0.058509  *
 *  Pressure:    0.0622                          *

 Pseudo atomic calculation performed for Sn 4d10 5s2 5p2

 Converged in 27 iterations to a total energy of -2044.0517 eV

Charge spilling parameter for spin component 1 = 0.29%

            Orbital Populations
     Ion    Atom   Orbital             Charge
     Sn     1      Dzz                  1.999
     Sn     1      Dzy                  1.998
     Sn     1      Dzx                  1.999
     Sn     1      Dxx-yy               1.999
     Sn     1      Dxy                  1.999
     Sn     1      S                    1.150
     Sn     1      Px                   0.770
     Sn     1      Py                   0.787
     Sn     1      Pz                   0.760
     Sn     1      S                    0.539
     Sn     2      Dzz                  1.999
     Sn     2      Dzy                  1.998
     Sn     2      Dzx                  1.999
     Sn     2      Dxx-yy               1.999
     Sn     2      Dxy                  1.999
     Sn     2      S                    1.150
     Sn     2      Px                   0.770
     Sn     2      Py                   0.787
     Sn     2      Pz                   0.760
     Sn     2      S                    0.539
                           Total:      28.000

     Atomic Populations (Mulliken)
Species          Ion     s      p      d      f     Total  Charge (e)
  Sn              1     1.69   2.32   9.99   0.00  14.00     0.00
  Sn              2     1.69   2.32   9.99   0.00  14.00     0.00

                 Bond                   Population      Length (A)
              Sn 1 -- Sn 2                  -2.79        2.87461

Initialisation time =     12.77 s
Calculation time    =     60.64 s
Finalisation time   =      0.01 s
Total time          =     73.42 s